(c9 h14 n), br4 mn                      
    1.000000000000000     
    17.1270999908000014    0.0000000000000000    0.0000000000000000
     0.0000000000000000    9.1787004471000007    0.0000000000000000
    -2.1437052400000001    0.0000000000000000   47.1172592411000011
   Mn   Br   N    C    H 
    12    47    24   216   336
Direct
 -0.0150118785293893  0.4842876465699617  0.7517586605768903
  0.0000959194298547  0.4795088602208016  0.2499881000287210
  0.4987819608296361  0.0201880018323947  0.7496267585976150
  0.5001331043977475  0.9795703489648621  0.2499858113478956
  0.7233214479764187  0.5949216120285138  0.9127551092661716
  0.2768126549574652  0.4038385268713953  0.0870663036055639
  0.2754483464172274  0.5950470020365576  0.5876040556889317
  0.7234351996426271  0.4038887506447671  0.4130220934216660
  0.2228958083216395  0.0956795394770042  0.9128159548817559
  0.7769005288738667  0.9036892079361564  0.0870930545412743
  0.7770789953947105  0.0960055081642349  0.5871207589376952
  0.2233636764800581  0.9038709553336787  0.4129930033331162
  0.9121476568388149  0.3076172108230373  0.2748331924737137
  0.9300767470954637  0.7087800076317545  0.7706986275496857
  0.0879225359467991  0.3073331696672184  0.2251662980148653
  0.5863150284480367  0.1935263407510051  0.7249204955483425
  0.4121523574097057  0.8076921338958685  0.2748002531385185
  0.4096540093147586  0.1907819689927333  0.7743757967789247
  0.5879333112833464  0.8073329142012555  0.2251670981348928
  0.0797748696756793  0.3496258795469442  0.7830783128776022
  0.9270549674420836  0.6421095830134835  0.2153615900459737
  0.9262803554196178  0.3498376469753426  0.7110940050787015
  0.0734952567260628  0.6414129636044150  0.2846887137339261
  0.5739349880031811  0.8599432320800027  0.7840595793818838
  0.4269952145948537  0.1421190673921467  0.2153333386599082
  0.4241000602079240  0.8566173177056032  0.7154299752467188
  0.5736684675034708  0.1415801649721188  0.2846131309881439
  0.6580947961480392  0.3853397192278278  0.8867989219507046
  0.3416222976043312  0.6144209421151468  0.1127096658018370
  0.3417005344022024  0.3858919213098874  0.6134798858437487
  0.6585018119048961  0.6143320236597708  0.3873474167467986
  0.1581333791073817  0.8852134839087363  0.8868987836031553
  0.8416085914805467  0.1143612048579517  0.1127029950268982
  0.8427324671698498  0.8859214676698384  0.6128099393688168
  0.1584967794220103  0.1143416311591516  0.3873499087707601
  0.7912263737867237  0.7442633484037391  0.8771328738591097
  0.2089550098081939  0.2555687672626754  0.1227229373901223
  0.2096975994069400  0.7460803688617296  0.6237250188836463
  0.7911061536243377  0.2556817223672618  0.3772992894450442
  0.2911732912466109  0.2443969430599625  0.8772290864140645
  0.7089309810913729  0.7553724606470804  0.1227204995529172
  0.7089580896425486  0.2444135887068561  0.6227205516072026
  0.2911629005425906  0.7556824309710849  0.3773043711931647
  0.6338756905576384  0.7640542772401051  0.9372807527867331
  0.3664714518799660  0.2348099854002970  0.0625812604646805
  0.3649677718630179  0.7628390691897431  0.5627880482107066
  0.6335394955885862  0.2348269708576988  0.4374261558108404
  0.1334577801204681  0.2653833461057157  0.9372620000320651
  0.8664762565204615  0.7347564743067830  0.0625605136608401
  0.8665823286781671  0.2654715434756124  0.5627222621841463
  0.1335528870953967  0.7348395601800405  0.4374146468584858
  0.8207670823536999  0.4963515672956469  0.9488072564159176
  0.1793371470186474  0.5034630991115709  0.0511032649708158
  0.1773389414485833  0.4973809157411103  0.5516965344782139
  0.8206911728098939  0.5026558762868005  0.4491886036514512
  0.3205200186268022  0.9966005505744737  0.9488222140661419
  0.6795127329188765  0.0030247174215374  0.0510498798692908
  0.6794924347796769  0.9965599363335750  0.5511477252947542
  0.3206287018018994  0.0031228513697206  0.4491299389431138
  0.8308521030019288  0.0258007137644128  0.9719486292257687
  0.1692331631022460  0.9741794319696930  0.0280814561763787
  0.1692071351203516  0.0258636093042014  0.5280447485523638
  0.8308555967169413  0.9742260644695427  0.4719119110380792
  0.3308451699215983  0.5257944174122885  0.9719501820592630
  0.6692673696174071  0.4741792964624894  0.0280895297027213
  0.6692036302273801  0.5258264073758095  0.5280718467070801
  0.3307750818204847  0.4742250407907986  0.4719349272022862
  0.5224906392103066  0.0022658099944067  0.8695292897764737
  0.4777099958057220  0.9977139280046148  0.1304005685202752
  0.4780819496237603  0.0021840282392692  0.6303392779751555
  0.5224134793382229  0.9977393402076885  0.3695914432437753
  0.0222072199975184  0.5023674577132812  0.8692946204062454
  0.9777275080408002  0.4977003153359591  0.1304053196990738
  0.9782647294442471  0.5043295718764886  0.6304419304482017
  0.0223876889813696  0.4977204510388815  0.3695936252262002
  0.6965968487516703  0.4492357060393870  0.7940057036587050
  0.3043153786536942  0.5515993399185596  0.2059150675689892
  0.3023640846981145  0.4473811049666692  0.7064146971627686
  0.6957569188331263  0.5516394659846467  0.2940723860631986
  0.1961054714103767  0.9466533186076451  0.7943810391182673
  0.8043103825037199  0.0515895733758039  0.2059143102053566
  0.8029902164691455  0.9484968154682076  0.7057651178786546
  0.1957444938078082  0.0516145843373708  0.2940725311277095
  0.8179827933309296  0.8776069172583528  0.9846990707807949
  0.1821085968115987  0.1223652383883463  0.0153483865513081
  0.1821060265293084  0.8776716159152667  0.5152982825444431
  0.8179249396191410  0.1223628871334078  0.4846557769198411
  0.3180092736288707  0.3775665967949185  0.9846872266552332
  0.6821527816642134  0.6223436947135854  0.0153551029461429
  0.6820767787436022  0.3776405856448922  0.5153242338295976
  0.3179254840731916  0.6224394155977728  0.4846555946006486
  0.7528983687079297  0.1033510132242640  0.9687978130251559
  0.2471743248325807  0.8965842705230991  0.0312328671182680
  0.2471260640457538  0.1035677960580322  0.5311783293640651
  0.7529099830789400  0.8966559698080514  0.4687474716833784
  0.2528769614503179  0.6033075735040426  0.9688134505708763
  0.7471956775216493  0.3965634080221790  0.0312495748366558
  0.7471497585592484  0.6034379561991694  0.5311970950403271
  0.2528302140578470  0.3967020628494587  0.4687548853081391
  0.8606205342436868  0.0035654389037610  0.9427058001946582
  0.1394480640121164  0.9964047093040461  0.0573197209923870
  0.1394806784097036  0.0035841890447106  0.5572922369076707
  0.8606517976738588  0.9965020064341207  0.4426788483487530
  0.3605988937100658  0.5036067058807345  0.9427043790183751
  0.6394610410224858  0.4964134120599296  0.0573215397483229
  0.6394922745087253  0.5035733354602736  0.5573250954295773
  0.3606775203410862  0.4964304073286412  0.4427106154860885
  0.8859588306126793  0.1155235411615206  0.9907343798711626
  0.1141356428582175  0.8845178311227717  0.0092802746953878
  0.1140761006922740  0.1155468022032888  0.5092643300524402
  0.8859459644601031  0.8845213805893317  0.4907022768221193
  0.3859415636799237  0.6155143417148471  0.9907361933957685
  0.6141951029596578  0.3845256152442958  0.0092809219605995
  0.6140534860402894  0.6155054359097339  0.5092951331284277
  0.3857676666495550  0.3845257245259180  0.4907547992291003
  0.8761151473882687  0.1149105235399380  0.0199639525323105
  0.1239863451402015  0.8853383739290430  0.9800498250513380
  0.1239204799766791  0.1148815629118359  0.4800330296412505
  0.8760916463945048  0.8852368733699429  0.5199291956239954
  0.3760907142636246  0.6148743147297987  0.0199629171983534
  0.6240387362459654  0.3854517420771503  0.9800541717807975
  0.6238933653405319  0.6149324145964224  0.4800642236327997
  0.3759270400319366  0.3855050871082753  0.5199871564849896
  0.9237436154593576  0.2026015894901851  0.0376117264145344
  0.0763880748382623  0.7978153173503949  0.9623619964620472
  0.0763438906282806  0.2025881103371595  0.4623713833694900
  0.9236795593653087  0.7975784611612425  0.5375880646991085
  0.4237049996086729  0.7025823230535712  0.0376190361492040
  0.5764207001596464  0.2980299645865102  0.9623572465245667
  0.5762664616771471  0.7026452107588884  0.4624201193517817
  0.4235721334074404  0.2981521468919676  0.5376991810027925
  0.9804124693638724  0.2917044366948301  0.0261429713567654
  0.0197076973573424  0.7086550036523015  0.9738090015771678
  0.0196428828265767  0.2916475138544629  0.4738325027488607
  0.9803936911540432  0.7085322399147428  0.5261294946160865
  0.4803883426680218  0.7916603902906926  0.0261465118557134
  0.5197337227392440  0.2088195644468534  0.9737931783601110
  0.5195522665772805  0.7916334202612871  0.4738915415348497
  0.4802354082292468  0.2088884944710000  0.5262564306778810
  0.9897602629194447  0.2907814761446615  0.9969212089550031
  0.0103782745656264  0.7093215579360844  0.0030297212483482
  0.0102922556580943  0.2908012990804310  0.5030547448827288
  0.9897424758588109  0.7093273529928222  0.4969129428632756
  0.4897324447219818  0.7907839141051730  0.9969266813393095
  0.5104202361295322  0.2094116871062969  0.0030145538440202
  0.5102020356126541  0.7906796785973768  0.5031148214489323
  0.4895519531505829  0.2093956817435631  0.4970339977163661
  0.9430914426840020  0.2020839157311962  0.9790400311758291
  0.0570140011743807  0.7978916316551005  0.0209511693301506
  0.0569629868345142  0.2021729860897644  0.5209497599853257
  0.9430749171499752  0.7979616229577845  0.4790188864967694
  0.4430609995866954  0.7020941306828956  0.9790401780095715
  0.5570791283278638  0.2978787110299740  0.0209479155434793
  0.5569086114621434  0.7020320793214445  0.5209931998868270
  0.4428950465624537  0.2978144349535826  0.4790998677431818
  0.6086348070820055  0.9852788493348302  0.8655143987315274
  0.3915798273903902  0.0145446895435192  0.1344427050376731
  0.3919077091458771  0.9850954137757455  0.6344021021992383
  0.6085312316296594  0.0146278666479562  0.3655428423293593
  0.1084137124083901  0.4851707016379637  0.8653452727826069
  0.8916008789230268  0.5145366551614304  0.1344455600776127
  0.8919870299995066  0.4876354874196216  0.6343291273076658
  0.1085145314343395  0.5145797627227967  0.3655443255090831
  0.5122869720032008  0.0761683455202318  0.8977732462206536
  0.4878515381926133  0.9239420474946193  0.1021504076637448
  0.4880050393542102  0.0759055647678716  0.6020739165601106
  0.5122500205398339  0.9239390161403461  0.3978416345600053
  0.0119439740598822  0.5768274962573379  0.8974950955772445
  0.9878616206191088  0.4239352760809831  0.1021541816494016
  0.9884520603525287  0.5766647708517918  0.6020606956789980
  0.0122268229742946  0.4239449391207530  0.3978421833817387
  0.4892438092037998  0.0969862612592482  0.8457662063110447
  0.5110636030849550  0.9029993206440369  0.1541531217062129
  0.5112963221994635  0.0973432837523777  0.6540384768368565
  0.4890721046299192  0.9030229915183603  0.3458327723052393
  0.9890825507992089  0.5966524448774212  0.8454284724661874
  0.0110793409178319  0.4029586127773085  0.1541530777668741
  0.0114969472528219  0.6009655325831426  0.6539463895990301
  0.9890298776008060  0.4030162009317747  0.3458369425666921
  0.4804911918644126  0.8583773049947615  0.8693599299916991
  0.5196519614372052  0.1416659303090602  0.1305843939380736
  0.5204463676214673  0.8585159048505170  0.6305598937431577
  0.4804604765929398  0.1416771300488987  0.3694086104623839
  0.9801528407823806  0.3584877440143929  0.8692321320822854
  0.0196656375373364  0.6416590457201242  0.1305987687459797
  0.0202803049297575  0.3602596887249444  0.6308000494578889
  0.9804520475808354  0.6416640537192414  0.3694085583386702
  0.3999765737954574  0.8595491445551643  0.8728204247955875
  0.6001721380734789  0.1404847768870757  0.1271435251971915
  0.6009767710440017  0.8600895596101662  0.6271416232940263
  0.3999410728843369  0.1404767555574256  0.3728481517235639
  0.8996682619727551  0.3598341455888732  0.8727663703640128
  0.1001949399843412  0.6404779174239272  0.1271583047767926
  0.1007819037875326  0.3610806585515708  0.6273549268014456
  0.8999233695495621  0.6404625229101646  0.3728424868537900
  0.3600342632997466  0.7277131123033463  0.8742181471369306
  0.6401320651729662  0.2722732110919048  0.1257862206759521
  0.6411423921640614  0.7283917165667606  0.6258454891279468
  0.3599732946487560  0.2722635656628867  0.3741993399950557
  0.8596645971469443  0.2280978771365136  0.8742343656169465
  0.1401413314561029  0.7722838301883201  0.1258022551016813
  0.1405171368657324  0.2289812284830852  0.6259556574014381
  0.8599566696825074  0.7722539905427115  0.3741895483172563
  0.4002902259727401  0.5961275930051698  0.8721809718996701
  0.5998894879245572  0.4038779549352383  0.1278454472136095
  0.6011727319831951  0.5965135465752509  0.6279248389575508
  0.4002000370613461  0.4038737066959830  0.3721403126933279
  0.8997927514269805  0.0964070593339396  0.8721959372253598
  0.0998911038938483  0.9038572928579104  0.1278544702787275
  0.1000748901187731  0.0975842509718110  0.6279366924750843
  0.9001959642586637  0.9038693714847229  0.3721368821877633
  0.4803543202386673  0.5969500761623535  0.8683720340095561
  0.5197965388152800  0.4030743607869436  0.1316237618613873
  0.5210398046860485  0.5969472257410646  0.6316528608983264
  0.4802957740677700  0.4031094616754339  0.3683641843145170
  0.9798718320297185  0.0970900901685642  0.8683737490919822
  0.0197980972827094  0.9030373936128362  0.1316351961191405
  0.0199890186820482  0.0987879576592135  0.6317380705899475
  0.9802765808668079  0.9030930287821355  0.3683646401964368
  0.5212145172029098  0.7281980542107680  0.8668900149917366
  0.4789228734043436  0.2718301261848892  0.1330702605387367
  0.4799683034925838  0.7280295900969785  0.6330576609119005
  0.5211663784635620  0.2718607871365777  0.3669205410002779
  0.0207991001102633  0.2281911084590642  0.8668012574002737
  0.9789282847757383  0.7718042514902521  0.1330779527469619
  0.9793579690998778  0.2302340968670447  0.6332337542884893
  0.0211496989290386  0.7718291603167023  0.3669215054306864
  0.6108214440253330  0.4243628166650498  0.7978575929257649
  0.3900140571130597  0.5766851456529543  0.2020531080938197
  0.3880219883317824  0.4216140103702753  0.7023484246157010
  0.6100548494353234  0.5767463638883846  0.2979360625213714
  0.1107501727268449  0.9215522145018989  0.7989238906584522
  0.8900048806020554  0.0766709701882730  0.2020543034830303
  0.8885213674795600  0.9238248284275151  0.7015825457596309
  0.1100355906665130  0.0767052046670690  0.2979329213833727
  0.7053930231857464  0.5063825367845546  0.7642555064601388
  0.2956251868635401  0.4945541751281088  0.2356896442527505
  0.2945041210060925  0.5054575858569877  0.7361459812229185
  0.7044429796469347  0.4945045835641713  0.2643021777819669
  0.2032895533048495  0.0028190999922561  0.7644977129387432
  0.7956206472983586  0.9945371572451754  0.2356895102890449
  0.7949342401000705  0.0063346871095166  0.7355266952616483
  0.2044396404378766  0.9944931551526263  0.2643016117510233
  0.7242189724698802  0.5626476849620045  0.8154468433598986
  0.2765942227479949  0.4384121778129821  0.1844298752810537
  0.2750715735017525  0.5602257841202268  0.6848419717798673
  0.7234365342090059  0.4384442651122545  0.3155640278476901
  0.2244055996131365  0.0613360051326816  0.8154900547736743
  0.7765879195914874  0.9383785334364044  0.1844314721927440
  0.7747318218401292  0.0610076659063982  0.6842302579127197
  0.2234334306946665  0.9384289144702823  0.3155673082085457
  0.7448008967743421  0.3132323851188532  0.7982604871730085
  0.2559993430466881  0.6874234179492398  0.2016530013923184
  0.2533993659999563  0.3120228669656420  0.7023092654789707
  0.7440982010737959  0.6874194904459930  0.2983201575687753
  0.2449629103860086  0.8113303713364703  0.7985133304535748
  0.7560044134898459  0.1874014211937583  0.2016589029353014
  0.7548808716066596  0.8124057676628563  0.7017703652520342
  0.2440809562427371  0.1873941120794449  0.2983234322554474
  0.8257123528179388  0.3237140174502058  0.7958712845056014
  0.1753014508111759  0.6767695286720016  0.2043795088051392
  0.1728298960526488  0.3227627853860349  0.7054177639226989
  0.8247833072242096  0.6766689264856367  0.2955687585656534
  0.3255542606045089  0.8231316555951139  0.7955639360527810
  0.6753067922877425  0.1767383705052056  0.2043807161606288
  0.6741973622253209  0.8231575521504473  0.7045166733489070
  0.3247744222433770  0.1766454402547362  0.2955781185254300
  0.8717883598567653  0.1995702870603143  0.7997113582277753
  0.1289515392888189  0.8005586815813320  0.2005760834719610
  0.1262152284280768  0.1994570518161285  0.7015017367067004
  0.8711276528662432  0.8004482213609794  0.2993820525609178
  0.3725145862982240  0.7000424168498579  0.7992394066988228
  0.6289485364160465  0.3005406068151966  0.2005831133938920
  0.6277535230195173  0.6994624601378121  0.7007730163120643
  0.3711211650293270  0.3004226852210135  0.2993907999221342
  0.8377529608775685  0.0660751840800643  0.8061384945344732
  0.1626754157856002  0.9339411914195473  0.1938262719456479
  0.1595701223948021  0.0664598120661014  0.6943951057204245
  0.8374351218383328  0.9338852758708741  0.3061287019516345
  0.3394157888360124  0.5662033752327379  0.8061241449761971
  0.6626775375202454  0.4339153299695613  0.1938395090614531
  0.6614864136389179  0.5659768508989119  0.6940566820604330
  0.3374203185817305  0.4338702544605560  0.3061294127813015
  0.7571001723049476  0.0571807558167170  0.8084512474263282
  0.2431755657781960  0.9429742035429601  0.1912226448998267
  0.2399034736480414  0.0568741063672027  0.6913829655593152
  0.7569602518969787  0.9430119266074619  0.3087490941244118
  0.2590424721683190  0.5559307710276106  0.8089335381852694
  0.7431787684229935  0.4429557036091263  0.1912296878169599
  0.7420096943969082  0.5566934357051027  0.6914848205206894
  0.2569358172522337  0.4429884236491204  0.3087523864089805
  0.7100239457979037  0.1803774798464996  0.8043604915260020
  0.2905431960288857  0.8200487049860932  0.1952990402051123
  0.2874437592635957  0.1795587814595941  0.6954869483627506
  0.7096000789226402  0.8200584668917519  0.3047028962365519
  0.2110098700368437  0.6781500801147839  0.8049316515643347
  0.7905442655813235  0.3200269302242409  0.1953009736929948
  0.7894144037393965  0.6796315285228196  0.6955149478008293
  0.2095824115145387  0.3200306348401394  0.3047057881121831
  0.7802017716826454  0.8157982088875932  0.9696891071112183
  0.2199073919377434  0.1841462171572151  0.0303536525471754
  0.2198712227913457  0.8158550694581512  0.5303098125716987
  0.7801247927651583  0.1841602283804918  0.4696557333706342
  0.2802375558827985  0.3157525845494194  0.9696784979549565
  0.7199349858635679  0.6841566474408345  0.0303633414107788
  0.7198357074784292  0.3158135402926648  0.5303336076158653
  0.2801160452520471  0.6842388778439484  0.4696542543498177
  0.7894030602975070  0.8899607121431986  0.0048076605861528
  0.2106775723910544  0.1101159179058217  0.9952354646558779
  0.2106913388531327  0.8900207677878045  0.4951902128856960
  0.7893433728049273  0.1100056189554817  0.5047628611555169
  0.2894455046944333  0.3898454625028299  0.0047992547953953
  0.7107322696657005  0.6100794876476905  0.9952462335122088
  0.7106641641169080  0.3899541861816347  0.4952135402563263
  0.2894158016083769  0.6102754045377256  0.5047781659016964
  0.8745743896105044  0.8240628747787934  0.9881337669909752
  0.1255183265473223  0.1759658763442682  0.0119226801628217
  0.1255189067445881  0.8241354063557985  0.5118525412623183
  0.8744832479028559  0.1759991613268165  0.4880961276050301
  0.3746083831768754  0.3240409721041262  0.9881161596273380
  0.6255681431049995  0.6759446962482988  0.0119212516738762
  0.6254935003229469  0.3240842296216194  0.5118843098360972
  0.3745152145318486  0.6760062632564700  0.4880771484686026
  0.7286796652360772  0.1123905491645050  0.9898135045468165
  0.2714003206040951  0.8874974807094991  0.0102213394579483
  0.2713397632295821  0.1126229703193086  0.5101645972095769
  0.7286562156737466  0.8875688522392700  0.4897535319862847
  0.2286635767788487  0.6122937044094822  0.9898282095293364
  0.7714227096598620  0.3874641501976371  0.0102362209577122
  0.7713292684000335  0.6124467747288989  0.5101751971698879
  0.2285699320741830  0.3875873808499118  0.4897644252257266
  0.7139461594445150  0.0370636854817445  0.9549104364516395
  0.2861507935960039  0.9628215259698558  0.0451199389910510
  0.2861134882159470  0.0374340865486589  0.5450813924265709
  0.7139599400435946  0.9629294181119123  0.4548673285413169
  0.2139311514598765  0.5370064943960814  0.9549216137533468
  0.7861705986968188  0.4627663135686184  0.0451339053836074
  0.7861331322010277  0.5372047835204211  0.5450870166798154
  0.2138882229002923  0.4630003588238635  0.4548715762827388
  0.7627127668257362  0.2112029329945162  0.9596299931465001
  0.2373531086734360  0.7887577150130629  0.0404061435384454
  0.2372220733467856  0.2113821681474113  0.5403494187245548
  0.7626926803824795  0.7888394085464310  0.4595711693076088
  0.2626634746662214  0.7111634197661872  0.9596423011383840
  0.7373627182655810  0.2887350728068082  0.0404175383814140
  0.7373107007400900  0.7112855314783630  0.5403613800427458
  0.2626448216200302  0.2888845294461477  0.4595837055168250
  0.8629012122845060  0.1083668286669586  0.9317679631435839
  0.1371485810701615  0.8916358010294825  0.0682699663951341
  0.1371543547324339  0.1084117091721238  0.5682264903818927
  0.8629451969621760  0.8917641629558287  0.4317216054093400
  0.3628558349820745  0.6084382348590053  0.9317705663089699
  0.6371510612199145  0.3916627629186455  0.0682791881759293
  0.6372330529553770  0.6083806335531623  0.5682666915464735
  0.3629584041809641  0.3916607708390670  0.4317599893613602
  0.8197840753813922  0.9308437089765574  0.9310899888685422
  0.1802726354402422  0.0691165817166369  0.0689490205531317
  0.1804162598114951  0.9310023810347350  0.5688992865561336
  0.8198471508967312  0.0692299327918694  0.4310476037880798
  0.3197781392877181  0.4308843607942456  0.9310825610762680
  0.6802669487519880  0.5691295811178818  0.0689559109786560
  0.6803550751963992  0.4308451629727131  0.5689335794838156
  0.3199140355351507  0.5691815484361075  0.4310617917950635
  0.9187248483903007  0.9537208160431173  0.9445556946111920
  0.0813633655147674  0.0462915446890975  0.0554674169035731
  0.0814129332016174  0.9536063796065201  0.5554518939614743
  0.9187451703022222  0.0463208679371376  0.4445353026712797
  0.4187119091652937  0.4538017546375752  0.9445464108310054
  0.5813746381677336  0.5462937579607607  0.0554703439904776
  0.5813962004991382  0.4537065401069759  0.5554866157026839
  0.4187861106231541  0.5462086524145763  0.4445809267469911
  0.8313847276629143  0.0489506860805549  0.0294604473263968
  0.1687392838074544  0.9513785542777529  0.9705796228164227
  0.1686894483083192  0.0489467520975288  0.4705495738933320
  0.8313616899949746  0.9512597144627630  0.5294085400898098
  0.3313340802136144  0.5489528798232877  0.0294554806702619
  0.6687651213799929  0.4515476625292224  0.9705882693907307
  0.6686366040141007  0.5489722646676003  0.4705742613121374
  0.3312914152970326  0.4518073932601006  0.5294597233692547
  0.9149934277835747  0.1994763446824989  0.0603731915361675
  0.0851580569264792  0.8010532589953667  0.9396040385457127
  0.0851240048909192  0.1993558319389230  0.4396085398047934
  0.9149376683015061  0.8008519984301987  0.5603487545268019
  0.4149378919077176  0.6994359101291855  0.0603793813982946
  0.5851585895266140  0.3013732536390804  0.9395969320208970
  0.5850180805158168  0.6994985154368140  0.4396616750475623
  0.4149145180374778  0.3017044921696289  0.5604581488684770
  0.0181410078933147  0.3609258721527023  0.0396828462966508
  0.9819943494302332  0.6395202826208900  0.9602426066871721
  0.9819318392091891  0.3608398413532687  0.4602803874540479
  0.0180976698412616  0.6392946132586131  0.5396745475823079
  0.5181021587487464  0.8608526050014620  0.0396936914571638
  0.4819855467062435  0.1397653081157259  0.9602276789233638
  0.4818277201963774  0.8608351638737659  0.4603463913717318
  0.5180438335962378  0.1399319626525212  0.5398213382890716
  0.0340331490287194  0.3587975621113594  0.9875941758895863
  0.9660630633911648  0.6412962378986737  0.0123253500925733
  0.9659958466177521  0.3588453879908163  0.5123576267625101
  0.0340188026462445  0.6412867412693483  0.4875997497823135
  0.5340226387803846  0.8588199521802583  0.9876116996888175
  0.4661049201634986  0.1413688094479721  0.0123081507251519
  0.4659212594363275  0.8587289394359030  0.5124258587428143
  0.5338430753623528  0.1412465324315115  0.4877495387216579
  0.9525480207882706  0.2040949993260981  0.9564171992414653
  0.0475319897629043  0.7957490104263343  0.0435731221572772
  0.0474490772661432  0.2042060374049340  0.5435710777141424
  0.9525645161238481  0.7958965249146771  0.4563955508043374
  0.4525275876354316  0.7041212189931857  0.9564150435645868
  0.5475789591859122  0.2957174208074561  0.0435702087762940
  0.5474636825442654  0.7040616744000876  0.5436187135905490
  0.4523927502650466  0.2955820174122086  0.4564802017263564
  0.6347361414362808  0.9194035396448167  0.8828187913990569
  0.3654119731106477  0.0804240405873295  0.1171514554615655
  0.3657953372929050  0.9188778969182779  0.6171474520798125
  0.6346898091985201  0.0805746893866563  0.3828301275638221
  0.1343855001959778  0.4194396361467045  0.8826927341413250
  0.8654371753149513  0.5804304121855024  0.1171532829467478
  0.8661900695557470  0.4214853956230680  0.6170075885476137
  0.1346763874508810  0.5804996618836992  0.3828346394964318
  0.6343444030023393  0.0946541128941083  0.8661083074369091
  0.3659175618890768  0.9051530589326995  0.1338468870897567
  0.3661806279428877  0.0944365532369829  0.6337363424298881
  0.6342181559895145  0.9052622509585334  0.3661375007178870
  0.1341827106618870  0.5944782150615814  0.8659294444327293
  0.8659306751472797  0.4051638298184826  0.1338492625128608
  0.8663577820523940  0.5970487045979075  0.6335632222379863
  0.1341838771907330  0.4051996371997765  0.3661391232430535
  0.6167352998866287  0.9342951141476447  0.8448759408041498
  0.3835344472994365  0.0655063646448322  0.1550855556414028
  0.3839099249061467  0.9343233520993617  0.6550755670560761
  0.6165416795439459  0.0655878102742973  0.3448937912493110
  0.1165977255154940  0.4337959786361351  0.8447428386423774
  0.8835502115824703  0.5655010269570014  0.1550887253320973
  0.8835646669988610  0.4370424365227513  0.6549851142901887
  0.1165301604337169  0.5655450887245775  0.3448974791412646
  0.5363154236466032  0.0033548137840649  0.9143843564686850
  0.4637498570776478  0.9968410887472011  0.0855576157976076
  0.4639019315686636  0.0028881930522199  0.5854990909001031
  0.5363234756672327  0.9968494205840605  0.4144371534637947
  0.0358807063647939  0.5040728106365171  0.9141417832314709
  0.9637685662785012  0.4968443255544532  0.0855606668138877
  0.9642985097807307  0.5029701882302393  0.5856144408741464
  0.0363082079854205  0.4968354967392356  0.4144394410519736
  0.4500659930272538  0.0960150045485291  0.9004910795581117
  0.5500544293159639  0.9040830953214226  0.0993987198503740
  0.5501820164359720  0.0959030444323896  0.5992797142721635
  0.4500331110911519  0.9040686145711271  0.4005790635507052
  0.9497234852385773  0.5968119222450935  0.9001826783565914
  0.0500606121979818  0.4040882194470144  0.0994039000363281
  0.0506562097873522  0.5960511561523483  0.5992318608835762
  0.9500121123764199  0.4040573071712517  0.4005831383428405
  0.5447274179766121  0.1791633593090625  0.8976287731379059
  0.4553918958325501  0.8209949289206442  0.1022837093540290
  0.4554736953619514  0.1787895014977923  0.6022231961887691
  0.5447257883559355  0.8209744456589670  0.3977025732311662
  0.0444893687473353  0.6796887731175666  0.8973298715464240
  0.9554017035775516  0.3209607924385436  0.1022868885203104
  0.9560458748545977  0.6797311873136683  0.6019894286593379
  0.0446982307991563  0.3209730069006471  0.3977038444836677
  0.5221133079403391  0.1993588550440680  0.8461775610985036
  0.4782494076875829  0.8005589817803983  0.1537562349431445
  0.4783029567913437  0.1995918061146882  0.6536112520588819
  0.5219038593656504  0.8006106947450626  0.3462369026740110
  0.0219376792517567  0.6990380496457830  0.8457689166166079
  0.9782548588724761  0.3005262974443666  0.1537534036398295
  0.9780793944710524  0.7027828122665282  0.6532607871222829
  0.0218577619058407  0.3005849640925242  0.3462374336123366
  0.4275869435636124  0.1193594335862487  0.8491004269009047
  0.5727196029257381  0.8807199941273399  0.1507871115389697
  0.5729128354089492  0.1199473785968427  0.6506582732034151
  0.4274169295939605  0.8806938321323975  0.3491900847613369
  0.9274098154493631  0.6191327906090216  0.8487344395507591
  0.0727352855570016  0.3806784796997227  0.1507869969424393
  0.0729661343294008  0.6240245533279078  0.6502625208888675
  0.9273764804418322  0.3807025255078393  0.3492000009288789
  0.4961512989535257  0.0396316246306435  0.8256725985710284
  0.5042010906808582  0.9603514969792485  0.1742448588747793
  0.5045635629898643  0.0402265921301588  0.6741615168725168
  0.4959478755895417  0.9603433267933102  0.3257385043246970
  0.9960741856401425  0.5389619952668286  0.8253717891005216
  0.0042162603957004  0.4603026788293778  0.1742477131638111
  0.0050428330136144  0.5447000755151591  0.6742398588494807
  0.9959085946913853  0.4603482465007764  0.3257435745939743
  0.3676167624033373  0.9611468450975911  0.8746959796580556
  0.6325526435196713  0.0389191953771430  0.1252810782116133
  0.6331751964127617  0.9618202782620148  0.6252197907330150