Mn58
1.0
        8.6184978485         0.0000000000         0.0000000000
        0.0000000000         8.6184978485         0.0000000000
        0.0000000000         0.0000000000         8.6184978485
   Mn
   58
Cartesian
     0.000000000         0.000000000         0.000000000
     2.747460781         2.747460781         2.747460781
     1.561788144         1.561788144         7.056709705
     7.056709705         1.561788144         1.561788144
     1.561788144         7.056709705         1.561788144
     3.069943434         0.305680890         3.069943434
     1.239305490         4.003567938         7.379192102
     7.379192102         4.003567938         1.239305490
     1.239305490         7.379192102         4.003567938
     1.239305490         1.239305490         4.614929653
     4.614929653         1.239305490         1.239305490
     4.003567938         7.379192102         1.239305490
     4.003567938         1.239305490         7.379192102
     7.379192102         1.239305490         4.003567938
     3.069943434         3.069943434         0.305680890
     0.305680890         3.069943434         3.069943434
     1.239305490         4.614929653         1.239305490
     0.767559125         2.435109111         0.767559125
     7.850938980         6.183388738         0.767559125
     0.767559125         6.183388738         7.850938980
     7.850938980         0.767559125         6.183388738
     3.541689799         3.541689799         6.744358035
     6.744358035         3.541689799         3.541689799
     6.183388738         0.767559125         7.850938980
     6.183388738         7.850938980         0.767559125
     0.767559125         7.850938980         6.183388738
     0.767559125         0.767559125         2.435109111
     2.435109111         0.767559125         0.767559125
     3.541689799         6.744358035         3.541689799
     4.309248924         4.309248924         4.309248924
     7.056709705         7.056709705         7.056709705
     5.871037068         5.871037068         2.747460781
     2.747460781         5.871037068         5.871037068
     5.871037068         2.747460781         5.871037068
     7.379192102         4.614929653         7.379192102
     5.548554671         8.312817119         3.069943434
     3.069943434         8.312817119         5.548554671
     5.548554671         3.069943434         8.312817119
     5.548554671         5.548554671         0.305680890
     0.305680890         5.548554671         5.548554671
     8.312817119         3.069943434         5.548554671
     8.312817119         5.548554671         3.069943434
     3.069943434         5.548554671         8.312817119
     7.379192102         7.379192102         4.614929653
     4.614929653         7.379192102         7.379192102
     5.548554671         0.305680890         5.548554671
     5.076807793         6.744358035         5.076807793
     3.541689799         1.874139813         5.076807793
     5.076807793         1.874139813         3.541689799
     3.541689799         5.076807793         1.874139813
     7.850938980         7.850938980         2.435109111
     2.435109111         7.850938980         7.850938980
     1.874139813         5.076807793         3.541689799
     1.874139813         3.541689799         5.076807793
     5.076807793         3.541689799         1.874139813
     5.076807793         5.076807793         6.744358035
     6.744358035         5.076807793         5.076807793
     7.850938980         2.435109111         7.850938980
