System = MnBrNCH geometry relaxation

NCORE = 4 
ISTART = 0
ICHARG = 2
ISYM = 0
GGA = PE
IVDW = 2
IALGO = 48

ISMEAR = 0
SIGMA = 0.05
ENCUT = 500
NELM = 5000
EDIFF = 1E-06
EDIFFG = -0.02

LREAL = Auto

IBRION = 2
NSW = 10000

ISPIN = 2
MAGMOM = 12*5.0 45*0.0 24*0.0 216*0.0 336*0.0
