(c9 h14 n), br4 mn                     
   1.00000000000000     
    17.1270999908000014    0.0000000000000000    0.0000000000000000
     0.0000000000000000    9.1787004471000007    0.0000000000000000
    -2.1437052400000001    0.0000000000000000   47.1172592411000011
   Mn   Br   N    C    H 
    12    45    24   216   336
Direct
  0.0000000069999970  0.5244116303040109  0.7499999919999993
  0.0000000020000002  0.4755883696959899  0.2500000040000003
  0.5000000209999982  0.0244116403040112  0.7499999919999993
  0.5000000260000022  0.9755883696959891  0.2500000040000003
  0.7232340518916212  0.5943858308830567  0.9129400587999248
  0.2767659371083814  0.4056141431169476  0.0870599162000763
  0.2767659341083776  0.5943858308830567  0.5870599242000774
  0.7232340598916218  0.4056141431169476  0.4129400907999282
  0.2232340798916163  0.0943858568830523  0.9129400587999248
  0.7767659371083815  0.9056141691169433  0.0870599162000763
  0.7767659341083777  0.0943858568830523  0.5870599242000774
  0.2232340878916169  0.9056141691169433  0.4129400907999282
  0.9092909252126968  0.3063941655564020  0.2722402900710150
  0.0907090857873009  0.3063941655564020  0.2277597179289860
  0.5907090637872987  0.1936058344435982  0.7277596849289866
  0.4092909252126966  0.8063941395563998  0.2722402900710150
  0.4092909222126999  0.1936058344435982  0.7722402980710085
  0.5907090717872994  0.8063941395563998  0.2277597179289860
  0.9215526653533114  0.6418805123292773  0.2194273579056622
  0.9215526683533081  0.3581194356707187  0.7194274069056628
  0.0784473666466911  0.6418805123292773  0.2805726490943420
  0.5784473846466928  0.8581194876707227  0.7805726570943425
  0.4215526653533117  0.1418805643292815  0.2194273579056622
  0.4215526683533083  0.8581194876707227  0.7194274069056628
  0.5784473316466919  0.1418805643292815  0.2805726490943420
  0.6567081742483476  0.3821111033438225  0.8873045129415122
  0.3432918787516533  0.6178889226561792  0.1126955230584834
  0.3432918787516533  0.3821111033438225  0.6126955510584859
  0.6567081672483435  0.6178889226561792  0.3873044239415158
  0.1567081392483414  0.8821110773438208  0.8873045129415122
  0.8432918227516557  0.1178888966561774  0.1126955230584834
  0.8432918787516532  0.8821110773438208  0.6126955510584859
  0.1567081322483443  0.1178888966561774  0.3873044239415158
  0.7908464329574197  0.7453805980126769  0.8768101435071987
  0.2091536340425753  0.2546194019873229  0.1231898924928041
  0.2091536480425764  0.7453805980126769  0.6231899204927995
  0.7908463749574220  0.2546194019873229  0.3768100945071986
  0.2908463769574220  0.2453805460126725  0.8768101435071987
  0.7091536200425811  0.7546194019873231  0.1231898924928041
  0.7091536200425811  0.2453805460126725  0.6231899204927995
  0.2908463749574219  0.7546194019873231  0.3768100945071986
  0.6330618031044657  0.7657821499995620  0.9375539201408339
  0.3669381958955303  0.2342178240004429  0.0624461308591668
  0.3669381938955301  0.7657821499995620  0.5624461438591642
  0.6330618111044664  0.2342178240004429  0.4375539531408330
  0.1330618871044658  0.2657821759995574  0.9375539201408339
  0.8669381958955307  0.7342178500004380  0.0624461308591668
  0.8669381938955305  0.2657821759995574  0.5624461438591642
  0.1330618811044653  0.7342178500004380  0.4375539531408330
  0.8220307898800133  0.4978299301797267  0.9495816131307239
  0.1779692061199866  0.5021700698202727  0.0504184128692782
  0.1779692091199833  0.4978299301797267  0.5504184098692745
  0.8220307928800171  0.5021700698202727  0.4495816051307233
  0.3220308178800153 -0.0021700568202755  0.9495816131307239
  0.6779692061199863  0.0021700698202733  0.0504184128692782
  0.6779692021199860 -0.0021700568202755  0.5504184098692745
  0.3220308208800119  0.0021700698202733  0.4495816051307233
  0.8316887517118161  0.0270395035872085  0.9711036949785796
  0.1683112382881893  0.9729605194127894  0.0288962800214215
  0.1683112492881867  0.0270395035872085  0.5288962880214225
  0.8316887587118131  0.9729605194127894  0.4711037279785791
  0.3316887097118134  0.5270394805872106  0.9711036949785796
  0.6683112382881902  0.4729605194127898  0.0288962800214216
  0.6683112352881864  0.5270394805872106  0.5288962880214225
  0.3316887037118129  0.4729605194127898  0.4711037279785791
  0.5212468559055576  0.0022352454421517  0.8695239930518323
  0.4787531720944444 -0.0022352044421518  0.1304760629481654
  0.4787531690944406  0.0022352454421517  0.6304760709481659
  0.5212468359055560 -0.0022352044421518  0.3695240260518314
  0.0212468979055542  0.5022352564421556  0.8695239930518323
  0.9787531720944447  0.4977647435578439  0.1304760629481654
  0.9787532250944455  0.5022352564421556  0.6304760709481659
  0.0212468879055534  0.4977647435578439  0.3695240260518314
  0.6947823959922019  0.4491059293292183  0.7938744206393652
  0.3052176540078025  0.5508941226707792  0.2061255943606387
  0.3052176560078027  0.4491059293292183  0.7061256433606401
  0.6947823919922016  0.5508941226707792  0.2938743526393603
  0.1947824169921998  0.9491059293292180  0.7938744206393652
  0.8052175980077976  0.0508940836707793  0.2061255943606387
  0.8052176000077977  0.9491059293292180  0.7061256433606401
  0.1947824189922000  0.0508940836707793  0.2938743526393603
  0.8178860041938671  0.8796213841351708  0.9840981031887918
  0.1821139998061346  0.1203786158648293  0.0159018738112025
  0.1821140108061390  0.8796213841351708  0.5159018798112033
  0.8178860621938648  0.1203786158648293  0.4840980951887916
  0.3178860591938664  0.3796213841351709  0.9840981031887918
  0.6821139858061320  0.6203786158648292  0.0159018738112025
  0.6821139828061353  0.3796213841351709  0.5159018798112033
  0.3178860621938631  0.6203786158648292  0.4840980951887916
  0.7539899283070930  0.1054777457553878  0.9676231670690731
  0.2460100936929086  0.8945222092446117  0.0323768459309248
  0.2460100906929048  0.1054777457553878  0.5323768569309288
  0.7539899413070905  0.8945222092446117  0.4676232400690749
  0.2539899143070921  0.6054777907553883  0.9676231670690731
  0.7460100656929065  0.3945222602446056  0.0323768459309248
  0.7460100636929063  0.6054777907553883  0.5323768569309288
  0.2539899133070955  0.3945222602446056  0.4676232400690749
  0.8622045711931596  0.0031833534131951  0.9420227994820352
  0.1377954518068384  0.9968166745868008  0.0579772155179699
  0.1377954558068387  0.0031833534131951  0.5579772235179703
  0.8622045741931634  0.9968166745868008  0.4420227914820340
  0.3622045711931595  0.5031833254131992  0.9420227994820352
  0.6377954238068364  0.4968166745868001  0.0579772155179699
  0.6377954208068397  0.5031833254131992  0.5579772235179703
  0.3622045461931610  0.4968166745868001  0.4420227914820340
  0.8867597687963655  0.1166196351392066  0.9898755697972876
  0.1132402672036298  0.8833803388607915  0.0101244452027096
  0.1132402712036301  0.1166196351392065  0.5101244542027072
  0.8867597717963693  0.8833803388607915  0.4898755617972876
  0.3867597127963692  0.6166196611392085  0.9898755697972876
  0.6132402252036340  0.3833803648607932  0.0101244452027096
  0.6132402782036348  0.6166196611392085  0.5101244542027072
  0.3867597157963659  0.3833803648607932  0.4898755617972876
  0.8771351093406395  0.1155638061631636  0.0190973003083741
  0.1228648836593564  0.8844362068368347  0.9809027046916302
  0.1228648726593591  0.1155638061631636  0.4809026966916289
  0.8771351083406430  0.8844362068368347  0.5190973193083718
  0.3771351093406394  0.6155637931631653  0.0190973003083741
  0.6228648836593563  0.3844361808368318  0.9809027046916302
  0.6228648866593601  0.6155637931631653  0.4809026966916289
  0.3771351083406429  0.3844361808368318  0.5190973193083718
  0.9247644133423890  0.2032883971128487  0.0367513920985569
  0.0752355886576122  0.7967116288871532  0.9632486309014416
  0.0752355916576160  0.2032883971128487  0.4632486229014408
  0.9247644093423887  0.7967116288871533  0.5367513920985567
  0.4247644133423880  0.7032883711128467  0.0367513920985569
  0.5752355816576141  0.2967116028871519  0.9632486309014416
  0.5752355846576108  0.7032883711128467  0.4632486229014408
  0.4247644093423876  0.2967116028871519  0.5367513920985567
  0.9813555987168570  0.2927062231812549  0.0253262667232958
  0.0186444132831443  0.7072937768187447  0.9746737282767075
  0.0186444072831438  0.2927062231812549  0.4746737612767062
  0.9813556497168576  0.7072937768187447  0.5253262547232946
  0.4813556547168540  0.7927062231812553  0.0253262667232958
  0.5186443932831424  0.2072937768187451  0.9746737282767075
  0.5186444002831465  0.7927062231812553  0.4746737612767062
  0.4813556777168523  0.2072937768187451  0.5253262547232946
  0.9905718845999942  0.2918958332919109  0.9960984426984890
  0.0094280844000068  0.7081041667080892  0.0039016083015113
  0.0094280874000035  0.2918958332919109  0.5039016213015092
  0.9905718825999941  0.7081041667080892  0.4960983946984923
  0.4905718565999919  0.7918958332919108  0.9960984426984890
  0.5094281144000092  0.2081041797080870  0.0039016083015113
  0.5094281124000091  0.7918958332919108  0.5039016213015092
  0.4905718545999918  0.2081041797080869  0.4960983946984923
  0.9437996384925499  0.2034703150173388  0.9782021154955959
  0.0562004185074516  0.7965296719826633  0.0217978725044028
  0.0562004245074521  0.2034703150173388  0.5217978675043992
  0.9437995954925499  0.7965296719826633  0.4782021884955990
  0.4437995824925521  0.7034703280173367  0.9782021154955959
  0.5562004645074480  0.2965296719826633  0.0217978725044028
  0.5562004595074511  0.7034703280173367  0.5217978675043992
  0.4437995954925496  0.2965296719826633  0.4782021884955990
  0.6075897584345108  0.9858389448523903  0.8657707922354673
  0.3924102385654853  0.0141610561476133  0.1342292437645364
  0.3924102325654848  0.9858389448523903  0.6342292317645347
  0.6075897614345146  0.0141610561476133  0.3657707842354658
  0.1075898214345127  0.4858389448523905  0.8657707922354673
  0.8924102935654864  0.5141610551476097  0.1342292437645364
  0.8924102885654895  0.4858389448523904  0.6342292317645347
  0.1075898174345123  0.5141610551476097  0.3657707842354658
  0.5105038439361105  0.0753394845261762  0.8978217161112506
  0.4894961780638913  0.9246604894738288  0.1021782998887510
  0.4894961750638946  0.0753394845261762  0.6021783078887443
  0.5105038289361057  0.9246604894738288  0.3978217891112527
  0.0105038649361087  0.5753395105261712  0.8978217161112506
  0.9894961220638938  0.4246605154738238  0.1021782998887510
  0.9894961200638936  0.5753395105261712  0.6021783078887443
  0.0105038639361050  0.4246605154738238  0.3978217891112527
  0.4882990588681439  0.0972714234500910  0.8456983154812255
  0.5117008851318515  0.9027286215499086  0.1543017405187724
  0.5117008821318548  0.0972714234500910  0.6543017485187727
  0.4882990518681469  0.9027286215499086  0.3456982264812281
  0.9882991148681485  0.5972714304500957  0.8456983154812255
  0.0117009321318520  0.4027285695499048  0.1543017405187724
  0.0117009381318525  0.5972714304500957  0.6543017485187727
  0.9882991628681453  0.4027285695499049  0.3456982264812281
  0.4792073418501751  0.8583704933799413  0.8691991942337358
  0.5207926821498273  0.1416295196200630  0.1308008317662590
  0.5207926781498270  0.8583704933799413  0.6308008297662591
  0.4792073438501753  0.1416295196200630  0.3691991862337354
  0.9792073688501733  0.3583704153799424  0.8691991942337358
  0.0207926491498277  0.6416295066200587  0.1308008317662590
  0.0207926571498213  0.3583704153799424  0.6308008297662591
  0.9792073168501761  0.6416295066200587  0.3691991862337354
  0.3987149974681375  0.8594581623554379  0.8727126948259140
  0.6012849725318604  0.1405418636445639  0.1272873511740898
  0.6012849715318639  0.8594581623554379  0.6272873691740913
  0.3987149954681373  0.1405418636445640  0.3727126468259104
  0.8987150254681394  0.3594581363554359  0.8727126948259140
  0.1012850145318638  0.6405418376445621  0.1272873511740898
  0.1012850205318643  0.3594581363554359  0.6272873691740913
  0.8987150234681393  0.6405418376445621  0.3727126468259104
  0.3587141574310054  0.7276073355628814  0.8737134148852460
  0.6412858345690009  0.2723926384371162  0.1262865811147541
  0.6412858295689969  0.7276073355628814  0.6262865681147561
  0.3587141654309990  0.2723926384371162  0.3737134468852483
  0.8587141574310055  0.2276074135628807  0.8737134148852460
  0.1412858205689997  0.7723926644371186  0.1262865811147541
  0.1412858225689999  0.2276074135628807  0.6262865681147561
  0.8587141654309991  0.7723926644371186  0.3737134468852483
  0.3987046958468351  0.5959645545287203  0.8712240979027043
  0.6012952651531646  0.4040354454712790  0.1287758770972906
  0.6012952631531644  0.5959645545287203  0.6287758850972908
  0.3987046758468334  0.4040354454712790  0.3712241309027029
  0.8987047238468381  0.0959645545287208  0.8712240979027043
  0.1012953281531597  0.9040354974712769  0.1287758770972906
  0.1012953321531600  0.0959645545287208  0.6287758850972908
  0.8987047318468387  0.9040354974712769  0.3712241309027029
  0.4788213958788031  0.5970211626886560  0.8674503762647483
  0.5211786261211993  0.4029788113113492  0.1325496397352529
  0.5211786241211991  0.5970211626886560  0.6325496477352537
  0.4788213708788046  0.4029788113113492  0.3674503682647475
  0.9788214238788049  0.0970212406886554  0.8674503762647483
  0.0211785951211926  0.9029788373113440  0.1325496397352529
  0.0211785991211929  0.0970212406886554  0.6325496477352537
  0.9788214268788016  0.9029788373113440  0.3674503682647475
  0.5198098472830938  0.7282669367177781  0.8663502470977397
  0.4801901497169090  0.2717330372822198  0.1336497889022555
  0.4801901447169050  0.7282669367177781  0.6336497759022587
  0.5198098402830896  0.2717330372822198  0.3663501580977437
  0.0198097982830936  0.2282668847177811  0.8663502470977397
 -0.0198098502830908  0.7717330632822219  0.1336497889022555
 -0.0198099112830923  0.2282668847177811  0.6336497759022587
  0.0198097952830969  0.7717330632822219  0.3663501580977437
  0.6092871856963025  0.4223204834887976  0.7977282375894231
  0.3907128393036964  0.5776794905112005  0.2022717984105740
  0.3907128663037022  0.4223204834887976  0.7022718264105751
  0.6092871786962983  0.5776794905112005  0.2977281485894255
  0.1092872276962984  0.9223205094887995  0.7977282375894231
  0.8907128673036984  0.0776795105112021  0.2022717984105740
  0.8907128663037018  0.9223205094887995  0.7022718264105751
  0.1092872196962977  0.0776795105112021  0.2977281485894255
  0.7033649336059190  0.5066512664298771  0.7641248023416565
  0.2966350083940758  0.4933487335701230  0.2358752336583395
  0.2966350353940745  0.5066512664298771  0.7358752616583417
  0.7033649416059197  0.4933487335701230  0.2641248353416555
  0.2033649746059190  0.0066512064298791  0.7641248023416565
  0.7966350633940772 -0.0066512664298770  0.2358752336583395
  0.7966350633940772  0.0066512064298791  0.7358752616583417
  0.2033649686059257 -0.0066512664298770  0.2641248353416555
  0.7217491153030230  0.5629964375329405  0.8152869846897647
  0.2782508206969723  0.4370035624670590  0.1847130113102348
  0.2782508436969778  0.5629964375329405  0.6847129983102375
  0.7217491213030235  0.4370035624670590  0.3152869966897658
  0.2217491013030285  0.0629964185329430  0.8152869846897647
  0.7782508766969763  0.9370036134670602  0.1847130113102348
  0.7782508706969758  0.0629964185329430  0.6847129983102375
  0.2217491073030290  0.9370036134670602  0.3152869966897658
  0.7438578677365183  0.3142271935964564  0.7980882183621175
  0.2561421272634779  0.6857728584035411  0.2019117976378846
  0.2561421332634784  0.3142271935964564  0.7019117646378846
  0.7438578147365246  0.6857728584035411  0.2980882103621158
  0.2438578677365183  0.8142271415964589  0.7980882183621175
  0.7561421822634787  0.1857728064035435  0.2019117976378846
  0.7561421752634817  0.8142271415964589  0.7019117646378846
  0.2438578707365221  0.1857728064035435  0.2980882103621158
  0.8245001218246796  0.3272301139728340  0.7955223478963979
  0.1754998781753202  0.6727699120271682  0.2044777081035994
  0.1754998751753235  0.3272301139728340  0.7044777161036003
  0.8245001268246764  0.6727699120271682  0.2955223608963956
  0.3245001498246751  0.8272300879728318  0.7955223478963979
  0.6754998781753204  0.1727698860271659  0.2044777081035994
  0.6754998751753237  0.8272300879728318  0.7044777161036003
  0.3245001268246767  0.1727698860271659  0.2955223608963956
  0.8718635734088999  0.2046175788707760  0.7990370641981454
  0.1281364535910990  0.7953824341292284  0.2009629308018577
  0.1281364555910992  0.2046175788707760  0.7009629188018568
  0.8718635784089038  0.7953824341292284  0.2990370771981433
  0.3718635454089048  0.7046175658707716  0.7990370641981454
  0.6281364745910970  0.2953824341292289  0.2009629308018577
  0.6281364695911001  0.7046175658707716  0.7009629188018568
  0.3718635504089016  0.2953824341292289  0.2990370771981433
  0.8390214825529708  0.0699510078749251  0.8054023461111911
  0.1609785374470307  0.9300489921250747  0.1945976498888084
  0.1609785314470302  0.0699510078749251  0.6945976378888076
  0.8390214875529748  0.9300489921250747  0.3054023581111919
  0.3390215385529753  0.5699510078749253  0.8054023461111911
  0.6609785094470285  0.4300489661250725  0.1945976498888084
  0.6609785594470255  0.5699510078749253  0.6945976378888076
  0.3390215155529698  0.4300489661250725  0.3054023581111919
  0.7585345257849586  0.0585263249185684  0.8078800906997962
  0.2414655102150444  0.9414737270814281  0.1921199253002052
  0.2414655262150457  0.0585263249185684  0.6921199733002091
  0.7585345367849560  0.9414737270814281  0.3078801436997897
  0.2585344987849527  0.5585263249185691  0.8078800906997962
  0.7414654682150409  0.4414736750814317  0.1921199253002052
  0.7414654702150411  0.5585263249185691  0.6921199733002091
  0.2585344947849594  0.4414736750814316  0.3078801436997897
  0.7101948102886559  0.1803756603617529  0.8040719752449662
  0.2898052067113485  0.8196243526382444  0.1959280007550397
  0.2898052047113483  0.1803756603617529  0.6959280077550359
  0.7101948182886566  0.8196243526382444  0.3040720072449608
  0.2101948172886532  0.6803756473617556  0.8040719752449662
  0.7898051797113431  0.3196243526382448  0.1959280007550397
  0.7898051767113465  0.6803756473617556  0.6959280077550359
  0.2101948182886569  0.3196243526382448  0.3040720072449608
  0.7805063065468163  0.8173771464248836  0.9690424047416859
  0.2194937144531889  0.1826228535751162  0.0309576012583145
  0.2194937134531852  0.8173771464248836  0.5309576192583161
  0.7805063195468137  0.1826228535751162  0.4690424777416883
  0.2805062925468152  0.3173771464248840  0.9690424047416858
  0.7194936864531867  0.6826228535751164  0.0309576012583145
  0.7194937414531877  0.3173771464248840  0.5309576192583161
  0.2805062915468116  0.6826228535751164  0.4690424777416883
  0.7883714553874190  0.8934259008158487  0.0039812322134144
  0.2116285706125831  0.1065741321841506  0.9960188137865820
  0.2116285686125829  0.8934259008158487  0.4960187657865853
  0.7883714533874189  0.1065741321841506  0.5039812502134162
  0.2883714273874168  0.3934258488158514  0.0039812322134144
  0.7116285426125808  0.6065741511841485  0.9960188137865820
  0.7116285406125806  0.3934258488158514  0.4960187657865853
  0.2883714533874190  0.6065741511841485  0.5039812502134162
  0.8741915923057483  0.8256601073253848  0.9879765535055804
  0.1258084346942581  0.1743399056746197  0.0120234984944239
  0.1258084396942550  0.8256601073253848  0.5120235104944248
  0.8741915853057441  0.1743399056746197  0.4879764645055764
  0.3741915923057478  0.3256601073253850  0.9879765535055804
  0.6258084066942552  0.6743398926746152  0.0120234984944239
  0.6258084046942550  0.3256601073253850  0.5120235104944248
  0.3741915853057437  0.6743398926746152  0.4879764645055764
  0.7293830992399958  0.1152866608349342  0.9885592631541151
  0.2706169217600092  0.8847133391650659  0.0114407418458814
  0.2706169477600042  0.1152866608349342  0.5114407608458867
  0.7293830562399958  0.8847133391650659  0.4885593361541183
  0.2293830712399940  0.6152866608349341  0.9885592631541152
  0.7706169497600047  0.3847133651650607  0.0114407418458814
  0.7706169477600046  0.6152866608349341  0.5114407608458869
  0.2293830702399904  0.3847133651650607  0.4885593361541183
  0.7151229291054684  0.0391452208089636  0.9537160577158169
  0.2848770628945307  0.9608547821910335  0.0462839352841856
  0.2848770578945339  0.0391452208089636  0.5462839252841852
  0.7151229411054694  0.9608547821910334  0.4537161307158196
  0.2151229431054696  0.5391452178089666  0.9537160577158169
  0.7848770628945310  0.4608547821910330  0.0462839352841856
  0.7848770578945341  0.5391452178089666  0.5462839252841852
  0.2151229411054694  0.4608547821910330  0.4537161307158196
  0.7642570561950733  0.2130874077723297  0.9584172904404630
  0.2357429398049267  0.7869126052276681  0.0415827355595327
  0.2357429358049263  0.2130874077723297  0.5415827325595355
  0.7642570491950692  0.7869126052276681  0.4584172014404658
  0.2642570701950744  0.7130873947723319  0.9584172904404630
  0.7357429398049263  0.2869126052276680  0.0415827355595327
  0.7357429358049260  0.7130873947723319  0.5415827325595355
  0.2642570771950714  0.2869126052276680  0.4584172014404658
  0.8646954308473647  0.1073070630514419  0.9308387783449833
  0.1353045311526322  0.8926929179485606  0.0691612066550185
  0.1353045271526390  0.1073070630514419  0.5691612046550188
  0.8646954388473653  0.8926929179485606  0.4308388113449828
  0.3646954308473646  0.6073070300514422  0.9308387783449833
  0.6353045591526345  0.3926929439485621  0.0691612066550185
  0.6353045551526342  0.6073070300514422  0.5691612046550188
  0.3646954108473629  0.3926929439485621  0.4308388113449828
  0.8216180042256446  0.9299070549712269  0.9304133192133124
  0.1783820017743560  0.0700929880287728  0.0695866767866867
  0.1783820037743561  0.9299070549712268  0.5695866637866898
  0.8216180022256444  0.0700929880287728  0.4304132702133125
  0.3216179902256436  0.4299070029712302  0.9304133192133124
  0.6783820437743523  0.5700929970287704  0.0695866767866867
  0.6783820377743518  0.4299070029712302  0.5695866637866898
  0.3216180022256446  0.5700929970287704  0.4304132702133125
  0.9202973826188888  0.9534151484440391  0.9441280631271008
  0.0797026253811119  0.0465848025559608  0.0558719528729003
  0.0797026303811088  0.9534151484440392  0.5558719608729011
  0.9202973806188887  0.0465848025559608  0.4441280151271040
  0.4202974386188931  0.4534152004440358  0.9441280631271008
  0.5797026113811107  0.5465847995559636  0.0558719528729003
  0.5797026643811115  0.4534152004440358  0.5558719608729011
  0.4202974356188893  0.5465847995559636  0.4441280151271040
  0.8325619738711380  0.0492650294934130  0.0286017485330105
  0.1674380491288679  0.9507349345065842  0.9713982694669906
  0.1674380511288681  0.0492650294934130  0.4713982614669900
  0.8325619708711341  0.9507349345065842  0.5286017545330114
  0.3325619458711350  0.5492650654934158  0.0286017485330105
  0.6674380211288652  0.4507349345065843  0.9713982694669906
  0.6674380241288619  0.5492650654934158  0.4713982614669900
  0.3325619428711383  0.4507349345065843  0.5286017545330114
  0.9160774785492227  0.1997297434207696  0.0595142483851350
  0.0839225664507775  0.8002702825792252  0.9404857876148679
  0.0839225624507772  0.1997297434207696  0.4404857796148673
  0.9160774735492188  0.8002702825792252  0.5595142353851305
  0.4160774515492170  0.6997297174207748  0.0595142483851350
  0.5839225734507816  0.3002702825792254  0.9404857876148679
  0.5839225764507783  0.6997297174207748  0.4404857796148673
  0.4160774455492166  0.3002702825792254  0.5595142353851305
  0.0190959328251804  0.3619208160255115  0.0388642091959085
  0.9809041301748217  0.6380791839744889  0.9611358368040880
  0.9809040721748240  0.3619208160255115  0.4611357888040915
  0.0190959368251807  0.6380791839744889  0.5388642271959102
  0.5190959238251757  0.8619208160255111  0.0388642091959085
  0.4809041021748187  0.1380791709744840  0.9611358368040880
  0.4809041001748257  0.8619208160255111  0.4611357888040915
  0.5190959228251791  0.1380791709744840  0.5388642271959102
  0.0347909896745053  0.3598833890137161  0.9867605432217373
  0.9652090983254957  0.6401165849862820  0.0132394987782591
  0.9652090423254911  0.3598833890137161  0.5132395207782608
  0.0347909736745039  0.6401165849862820  0.4867604942217367
  0.5347910106745097  0.8598834150137180  0.9867605432217373
  0.4652089873254888  0.1401166109862838  0.0132394987782591
  0.4652090143254946  0.8598834150137180  0.5132395207782608
  0.5347910076745059  0.1401166109862838  0.4867604942217367
  0.9531245755018650  0.2057403294270132  0.9555728093690840
  0.0468754044981331  0.7942596445729843  0.0444271986309169
  0.0468754094981371  0.2057403294270132  0.5444272146309180
  0.9531245225018642  0.7942596445729843  0.4555728013690831
  0.4531246035018675  0.7057403554270157  0.9555728093690841
  0.5468754184981345  0.2942596705729870  0.0444271986309169
  0.5468754164981343  0.7057403554270157  0.5444272146309180
  0.4531246055018677  0.2942596705729870  0.4555728013690831
  0.6333306218937699  0.9193510272527320  0.8830614666565580
  0.3666694011062286  0.0806489797472650  0.1169385593434371
  0.3666693971062283  0.9193510272527320  0.6169385563434403
  0.6333306248937666  0.0806489797472649  0.3830614586565569
  0.1333305528937675  0.4193510792527367  0.8830614666565580
  0.8666694291062308  0.5806489727472680  0.1169385593434371
  0.8666694251062305  0.4193510792527367  0.6169385563434403
  0.1333305408937665  0.5806489727472680  0.3830614586565569
  0.6331192145975358  0.0953335899714805  0.8666330252473304
  0.3668807524024645  0.9046663780285170  0.1333669907526711
  0.3668807774024631  0.0953335899714805  0.6333669987526716
  0.6331192675975367  0.9046663780285170  0.3666329762473300
  0.1331191865975339  0.5953335709714823  0.8666330252473304
  0.8668807804024673  0.4046664040285191  0.1333669907526711
  0.8668807774024635  0.5953335709714823  0.6333669987526716
  0.1331191845975337  0.4046664040285191  0.3666329762473300
  0.6164909782292919  0.9357649549170243  0.8451028147636768
  0.3835090727707084  0.0642350770829707  0.1548972112363183
  0.3835090687707081  0.9357649549170243  0.6548972092363181
  0.6164909312292915  0.0642350770829707  0.3451028467636794
  0.1164909372292924  0.4357648509170299  0.8451028147636768
  0.8835090727707088  0.5642350970829729  0.1548972112363183
  0.8835090687707085  0.4357648509170299  0.6548972092363181
  0.1164909312292919  0.5642350970829729  0.3451028467636794
  0.5343044258888869  0.0019338089418010  0.9143782409550645
  0.4656955951111189 -0.0019338259417989  0.0856217650449355
  0.4656955941111153  0.0019338089418010  0.5856217830449375
  0.5343044388888845 -0.0019338259417989  0.4143783139550603
  0.0343044538888818  0.5019338259417990  0.9143782409550645
  0.9656956231111136  0.4980661740582009  0.0856217650449355
  0.9656955661111195  0.5019338259417990  0.5856217830449375
  0.0343044558888819  0.4980661740582009  0.4143783139550603
  0.4482296053583692  0.0949006095194072  0.9004656693886980
  0.5517704116416285  0.9050993774805873  0.0995343056113034
  0.5517704646416294  0.0949006095194072  0.5995343136113042
  0.4482296033583690  0.9050993774805873  0.4004656213886942
  0.9482295773583741  0.5949006225194127  0.9004656693886980
  0.0517704116416285  0.4050993774805885  0.0995343056113034
  0.0517704156416288  0.5949006225194127  0.5995343136113042
  0.9482295753583739  0.4050993774805885  0.4004656213886942
  0.5429092066905860  0.1783976272061933  0.8979113670700934
  0.4570907603094153  0.8216023727938062  0.1020886479299113
  0.4570907573094186  0.1783976272061933  0.6020886559299120
  0.5429091816905874  0.8216023727938062  0.3979113600700896
  0.0429092896905817  0.6783976272061938  0.8979113670700934
  0.9570908163094124  0.3216023727938066  0.1020886479299113
  0.9570908133094157  0.6783976272061938  0.6020886559299120
  0.0429092886905852  0.3216023727938066  0.3979113600700896
  0.5211988816289906  0.1996023547758803  0.8462347443660486
  0.4788011123710083  0.8003976582241248  0.1537652616339516
  0.4788011103710081  0.1996023547758803  0.6537652796339463
  0.5211988786289939  0.8003976582241248  0.3462346963660518
  0.0211988326289909  0.6996023417758752  0.8462347443660486
  0.9788010563710112  0.3003976582241241  0.1537652616339516
  0.9788011103710087  0.6996023417758752  0.6537652796339463
  0.0211988306289907  0.3003976582241241  0.3462346963660518
  0.4265653227292556  0.1195386740649690  0.8489440662339093
  0.5734346202707432  0.8804612869350313  0.1510559797660934
  0.5734346182707430  0.1195386740649690  0.6510559977660889
  0.4265653307292563  0.8804612869350313  0.3489440992339098
  0.9265653787292603  0.6195386610649715  0.8489440662339093
  0.0734346722707405  0.3804613129350264  0.1510559797660934
  0.0734346812707377  0.6195386610649715  0.6510559977660889
  0.9265653867292609  0.3804613129350264  0.3489440992339098
  0.4954467652807539  0.0402012078187955  0.8255929284121063
  0.5045531707192478  0.9597987561812021  0.1744070665878894
  0.5045531657192509  0.0402012078187955  0.6744070545878887
  0.4954467632807537  0.9597987561812021  0.3255928804121097
  0.9954468212807516  0.5402011918187936  0.8255929284121063
  0.0045532337192495  0.4597988081812059  0.1744070665878894
  0.0045532347192460  0.5402011918187936  0.6744070545878887
  0.9954468192807514  0.4597988081812059  0.3255928804121097
  0.3664249471604256  0.9609115088266016  0.8747843381278071
  0.6335750728395692  0.0390885231734011  0.1252156568721896
  0.6335751228395733  0.9609115088266016  0.6252156448721879
  0.3664249271604310  0.0390885231734011  0.3747843711278056
  0.8664249191604302  0.4609114048266003  0.8747843381278071