(c9 h14 n), br4 mn                     
   1.00000000000000     
    17.1270999908000014    0.0000000000000000    0.0000000000000000
     0.0000000000000000    9.1787004471000007    0.0000000000000000
    -2.1437052400000001    0.0000000000000000   47.1172592411000011
  Br 
  2
Cartesian
0.0000 0.0000 1.1405
0.0000 0.0000 -1.1405
