IALGO = 48
NCORE = 8 
ISTART = 0 
ICHARG = 2 
ISYM = 0 
GGA = PE
IVDW = 2 

ISMEAR = 0 
SIGMA = 0.05
ENCUT = 500 
NELM = 5000
EDIFF = 1E-06

LREAL = Auto
LCHARG = .True.
LWAVE = .True.

LDAU = .TRUE.
LDATYPE = 2
LDAUL = 2 -1 -1 -1 -1
LDAUU = 1.0 0.0 0.0 0.0 0.0
LDAUJ = 0.0 0.0 0.0 0.0 0.0
LMAXMIX = 4
LDAUPRINT = 1
LASPH = .TRUE.

IBRION = -1
NSW = 0 

ISPIN = 2 
MAGMOM = 12*5.0 47*0.0 24*0.0 216*0.0 336*0.0
