PREC = Accurate
ISYM = 0 

IALGO = 48
NCORE = 8 
ISMEAR = 0 
SIGMA = 0.05
ENCUT = 500 
EDIFF = 1E-06

LREAL = Auto
LWAVE = .FALSE.
LCHARG = .FALSE.
LORBIT = 11

LDAU = .TRUE.
LDATYPE = 2
LDAUL = 2 -1 -1 -1 -1
LDAUU = 2.5 0.0 0.0 0.0 0.0
LDAUJ = 0.0 0.0 0.0 0.0 0.0
LMAXMIX = 4
LDAUPRINT = 1
LASPH = .TRUE.

NELM = 5000
NEDOS = 1000
IBRION = -1
NSW = 0 

ISPIN = 2 
MAGMOM = 12*5.0 47*0.0 24*0.0 216*0.0 336*0.0
