(c9 h14 n), br4 mn                      
    1.000000000000000     
    17.1270999908000014    0.0000000000000000    0.0000000000000000
     0.0000000000000000    9.1787004471000007    0.0000000000000000
    -2.1437052400000001    0.0000000000000000   47.1172592411000011
   Mn   Br   N    C    H 
    12    48    24   216   336
Direct
  0.0000208901117061  0.5215993602406434  0.7499888473704438
 -0.0000262869525004  0.4781904322493770  0.2499715796212747
  0.5002363224687372  0.0215758419964249  0.7500642584645416
  0.4999885081437838  0.9783826349629797  0.2500113087935741
  0.7232581677352700  0.5957999366849652  0.9129162141090207
  0.2765927733954042  0.4041399663657599  0.0870566900247164
  0.2767883302866158  0.5959833075479726  0.5870918683840176
  0.7232850330108338  0.4041990353682816  0.4129194127938678
  0.2232374870976954  0.0956718890817085  0.9129119911518969
  0.7767736281003920  0.9041791253669039  0.0870651599189665
  0.7767674689361390  0.0961650312727356  0.5870382252643098
  0.2232230897983142  0.9040527794554958  0.4129144003785544
  0.0880917245161444  0.6930074268680640  0.7251412223479305
  0.9119597455267530  0.3067804627228036  0.2748843489938901
  0.9119071253099651  0.6931701632292956  0.7748430358778468
  0.0880937233223155  0.3068002315384013  0.2251482615021086
  0.5880685804641025  0.1931756343013872  0.7251447724099070
  0.4118964026239848  0.8068594173074591  0.2748464286459624
  0.4119635241788699  0.1929515014655725  0.7748251928285049
  0.5879865903289063  0.8070294593229030  0.2251224715710700
  0.0728408180023626  0.3601554288879502  0.7848282286428376
  0.9271034178935957  0.6396425806695295  0.2151836577365395
  0.9272858627687817  0.3597714751716117  0.7151813260029987
  0.0727884059894158  0.6397711534372538  0.2847778191377884
  0.5731497823919856  0.8601586721592451  0.7849037826787393
  0.4272467331696664  0.1399832862318092  0.2151455148028342
  0.4273260719258757  0.8600427547549527  0.7152279006759109
  0.5727178983933344  0.1402505200492927  0.2848260720927557
  0.6582815476468455  0.3853934922381048  0.8872740322271865
  0.3416670545128330  0.6142892452311280  0.1127266674694297
  0.3416965878349568  0.3856990563202068  0.6127440719501738
  0.6583058125137111  0.6143925936929707  0.3872460907587268
  0.1582870735134354  0.8854057406398429  0.8872311260249690
  0.8416925056241260  0.1144580623390807  0.1127449961795888
  0.8416980895780531  0.8857269725943069  0.6126959287743602
  0.1582537058128445  0.1142887924688188  0.3872623938003405
  0.7910635839093135  0.7443784722397792  0.8772971682818642
  0.2089572745514874  0.2555224017070146  0.1227045008911247
  0.2089461494739313  0.7444755410921510  0.6227017464995200
  0.7910369088626176  0.2555893114754446  0.3772878093927880
  0.2910977657974241  0.2443555954848821  0.8773044509675980
  0.7089825667695264  0.7554168663197778  0.1226934823979668
  0.7093926665456572  0.2458186931758497  0.6225986702386882
  0.2910643462081112  0.7555245181724455  0.3773059927657728
  0.6335905712464195  0.7642030143382366  0.9374684510839312
  0.3664302535602993  0.2358271877381660  0.0625486819658110
  0.3664474089566463  0.7644749310984373  0.5625520963954003
  0.6336359824319552  0.2357591435826637  0.4374836665049590
  0.1335692236686849  0.2641520597452886  0.9374598776106208
  0.8664634831509180  0.7356849330111436  0.0625411064655993
  0.8665722842089770  0.2641420556811396  0.5624062954660544
  0.1335621378338677  0.7356579918164905  0.4374824280282577
  0.8208079836092761  0.4965400502375389  0.9488922351815254
  0.1790921710702791  0.5035935704520422  0.0511153159937228
  0.1794437802326571  0.4963865158606247  0.5510943457544394
  0.8207323086749936  0.5036505436119086  0.4488900421048652
  0.3207980262221814  0.9963861640813465  0.9488879440874114
  0.6793001489197559  0.0035932108786410  0.0511052741347858
  0.6791719838091487  0.9965360427456638  0.5511093902020293
  0.3205782264712272  0.0036102214589512  0.4489034344569666
  0.8309237760912214  0.0257803665464446  0.9718902982795282
  0.1690730716044506  0.9742317327578766  0.0281133363290902
  0.1690774337225713  0.0257765477548122  0.5281126790496279
  0.8309195611723867  0.9742099715224753  0.4718876542855271
  0.3309235045521394  0.5257848501071450  0.9718903341926259
  0.6690786091480732  0.4742184434006440  0.0281099491752458
  0.6690708614735946  0.5257878568837423  0.5281081001274591
  0.3309143343571134  0.4742233781767196  0.4718882295818096
  0.5221835837319386  0.0022629572914198  0.8696858330846353
  0.4777991929663917  0.9977198124776105  0.1303243991539768
  0.4778527899555041  0.0023854334771310  0.6303295799677187
  0.5221626842845017  0.9977182114640039  0.3696771012030090
  0.0221641896069145  0.5022762231431256  0.8696810164452989
  0.9778307052143639  0.4977271871758243  0.1303266529439900
  0.9778087133196801  0.5022806717028433  0.6303193737066355
  0.0221566659684860  0.4976894361818457  0.3696722615411649
  0.6956191624539294  0.4487301613545978  0.7941775100759888
  0.3043908618430791  0.5512897563124720  0.2058375115514521
  0.3044032491397407  0.4486340752190361  0.7058360963689025
  0.6956069475026436  0.5513129374774597  0.2941632989619544
  0.1955820084217512  0.9486765198056142  0.7941669301607072
  0.8043685308274308  0.0512402678064570  0.2058392214450838
  0.8044326937896431  0.9486760364534653  0.7058184531620042
  0.1956232377386179  0.0512971270079739  0.2941571800400637
  0.8179008205331818  0.8776622552628035  0.9846252540853633
  0.1820966257559370  0.1223407223312052  0.0153750589102587
  0.1820960376482984  0.8776578420998037  0.5153772553898790
  0.8178974395350724  0.1223342176720878  0.4846227078640979
  0.3179021255738444  0.3776645183163087  0.9846228244098463
  0.6821010607746218  0.6223410192189731  0.0153744279450377
  0.6820951670477061  0.3776639058333912  0.5153735340223751
  0.3178993819648266  0.6223432870827660  0.4846264093595094
  0.7530063547672140  0.1034456677695660  0.9687094197583943
  0.2469900289237698  0.8965780434844897  0.0312963889591592
  0.2470039771502733  0.1034171176931718  0.5312957476707071
  0.7530008963266557  0.8965470462370927  0.4687012334415384
  0.2530040093576070  0.6034382436553538  0.9687069340863690
  0.7469996041471342  0.3965699599370987  0.0312941308518654
  0.7469930007061649  0.6034384843789509  0.5312931510178101
  0.2529928042580030  0.3965715277077248  0.4687057607123619
  0.8608659499550747  0.0034966690768566  0.9426786206217480
  0.1391246326151916  0.9965080449526827  0.0573229375149098
  0.1391318619895872  0.0034978379009836  0.5573238229196289
  0.8608834046997567  0.9965077232976878  0.4426786501538041
  0.3608838455546465  0.5034991117649058  0.9426809460536808
  0.6391299285938672  0.4964932519014632  0.0573219261158041
  0.6391118725969617  0.5035049605037460  0.5573172559673328
  0.3608665971227223  0.4965114756675731  0.4426782557369052
  0.8859870373895840  0.1154517851636384  0.9906929053237288
  0.1139937386227102  0.8845478829261433  0.0093151851096306
  0.1140168643991632  0.1154608239982325  0.5093090769735044
  0.8859839524372471  0.8845378873174843  0.4906903863290084
  0.3859925723115314  0.6154713501127412  0.9906929819156969
  0.6140132561777423  0.3845371333676331  0.0093079764219125
  0.6140045443482141  0.6154636800313985  0.5093067824310178
  0.3859835388418442  0.3845437707697125  0.4906882604773641
  0.8761201998472692  0.1147633428321774  0.0199120749485215
  0.1238410493102979  0.8852652523485621  0.9800933431457223
  0.1238775676553954  0.1147460131420093  0.4800896448115535
  0.8761351525387799  0.8852477239990015  0.5199125747622426
  0.3761408658785392  0.6147557965968763  0.0199151977744183
  0.6238634408480693  0.3852470074346543  0.9800874843561691
  0.6238659538309166  0.6147884601704414  0.4800866013283728
  0.3761452315458318  0.3852531038224578  0.5199128179775311
  0.9237192144928301  0.2023958340421351  0.0375688844275680
  0.0762373932092515  0.7976225246675073  0.9624358343176516
  0.0762755885322456  0.2023710641606069  0.4624298286188364
  0.9237465981547132  0.7976122342268477  0.5375698949031694
  0.4237467045630972  0.7024085021880918  0.0375709397483013
  0.5762559406073727  0.2975998327343199  0.9624324193447376
  0.5762637094420857  0.7024339294778481  0.4624315442786412
  0.4237512703488793  0.2976144108149288  0.5375676244116395
  0.9804212785379696  0.2914760612240629  0.0261138009634281
  0.0195516447053602  0.7085230779136709  0.9739002403173718
  0.0195789830392279  0.2914615978573321  0.4738853693577718
  0.9804387263628879  0.7085256996199273  0.5261095924606762
  0.4804361821258471  0.7914885437885505  0.0261097635301166
  0.5195575146331898  0.2085224406811421  0.9738891288721562
  0.5195551466532703  0.7914760608778342  0.4738911762589999
  0.4804337772706236  0.2085256137499119  0.5261068345163288
  0.9898204764927915  0.2905468693837365  0.9968938382747710
  0.0101784202320762  0.7094156924992050  0.0031212651427664
  0.0101973678808018  0.2905754304838366  0.5031053648022661
  0.9898146496875266  0.7094216949771359  0.4968896009093235
  0.4898165521121143  0.7905814690215737  0.9968883007981909
  0.5101825114268036  0.2094204123743236  0.0031122108012956
  0.5101744851506174  0.7905761267645189  0.5031121199049219
  0.4898078802399604  0.2094193535337392  0.4968844920777367
  0.9431795604861123  0.2018335756805526  0.9790019859847852
  0.0568227013039442  0.7981254453076893  0.0210083226433513
  0.0568350920184382  0.2018760858580520  0.5209935957317708
  0.9431672098386378  0.7981374039272779  0.4790032239056180
  0.4431669683818273  0.7018843350301944  0.9790025412464092
  0.5568303898672826  0.2981329965471801  0.0209970429560979
  0.5568190234290902  0.7018595393094286  0.5209998231297966
  0.4431570811988129  0.2981214458173648  0.4789970067646840
  0.6083380808833331  0.9853277190036444  0.8656220404104911
  0.3916418210493801  0.0146322977856997  0.1343837702931748
  0.3917103432083260  0.9854610721628312  0.6344049197447924
  0.6083147788344917  0.0146339887298092  0.3656000067078922
  0.1083129149020354  0.4853105536527603  0.8656133832860162
  0.8916807803275375  0.5146759754615606  0.1343937494010148
  0.8916491478288765  0.4853737416806310  0.6343765028891188
  0.1083098044094494  0.5146037846847611  0.3655969493467525
  0.5120867230564424  0.0759410816190221  0.8979366990262642
  0.4879080286877286  0.9240608639746994  0.1020688738764235
  0.4879172195660746  0.0759687794026188  0.6020659440689740
  0.5120956947768008  0.9240626169328169  0.3979337563107767
  0.0120876883795911  0.5759436073122601  0.8979354235688561
  0.9879175799917995  0.4240595135429892  0.1020681588848389
  0.9879086239105103  0.5759519160483991  0.6020664399267601
  0.0120943963959532  0.4240516014205000  0.3979325949137092
  0.4888398602356686  0.0972055970333333  0.8459661770334032
  0.5111435286135251  0.9027949149521904  0.1540475200840855
  0.5112128996079354  0.0973817123856276  0.6540360169466923
  0.4888058390520468  0.9027243811131553  0.3459655189916616
  0.9888266202255445  0.5972289410605784  0.8459613773683435
  0.0111716029503284  0.4027639971127793  0.1540449821803771
  0.0111445150095456  0.5972094445603795  0.6540423268348894
  0.9887988078755123  0.4026630820996552  0.3459644979842376
  0.4800811910160800  0.8584118927426674  0.8695112410788881
  0.5198802551474241  0.1415745993932101  0.1305115857994888
  0.5199452785415153  0.8585433987196509  0.6305172881838844
  0.4800668336830489  0.1415816073706394  0.3694957663668960
  0.9800366382388933  0.3584418482761042  0.8695038385658345
  0.0199335273430463  0.6415815550214508  0.1305115645508791
  0.0198929180053586  0.3584305707344089  0.6304981111625824
  0.9800548569437345  0.6415447566481388  0.3694805344832680
  0.3995636263527613  0.8597671912995276  0.8729555351709911
  0.6004114748658572  0.1402207666455324  0.1270808478214857
  0.6004632026816361  0.8598603880954863  0.6270665411533143
  0.3995483396469937  0.1402733276305319  0.3729401890010996
  0.8995158663312186  0.3598218083390158  0.8729507123204457
  0.1004628532376530  0.6402317239922346  0.1270790749125061
  0.1004117803943055  0.3597517408542715  0.6270662382106484
  0.8995271133835787  0.6402345793501176  0.3729194847093854
  0.3594652085189557  0.7280472353802917  0.8742244019777565
  0.6405020655331496  0.2719408344040006  0.1257958090438189
  0.6405322509020613  0.7281144062544916  0.6257813963925301
  0.3594688712212237  0.2719972213137274  0.3742132966126884
  0.8594187965333656  0.2281053010413164  0.8742234123829209
  0.1405602051064842  0.7719450034831398  0.1258030027636226
  0.1405117767682442  0.2280388744187190  0.6257935944089404
  0.8594558230762300  0.7719587515783328  0.3742006929626584
  0.3995229254214384  0.5963644002879425  0.8721006380352255
  0.6004160657109031  0.4036279677620155  0.1278934796081516
  0.6004390032099586  0.5964472195487038  0.6278942353210788
  0.3995553994840543  0.4036588731648473  0.3720965109388731
  0.8994813933360919  0.0964078493843136  0.8721002351662536
  0.1004875065991237  0.9036350092879800  0.1279101018297823
  0.1004303422061643  0.0963528790487545  0.6279063054282875
  0.8995361520042834  0.9036281856650248  0.3720898106390789
  0.4796527083300515  0.5969898148742054  0.8683730313035355
  0.5202958034931902  0.4029895108960835  0.1316189699395561
  0.5203124189663588  0.5971031020530411  0.6316219311653141
  0.4796826468938523  0.4029877248951011  0.3683727683684584
  0.9796174639967871  0.0970192142740405  0.8683699738951528
  0.0203587275342800  0.9029989745811954  0.1316316507234835
  0.0202961940834666  0.0970079703631278  0.6316217077759083
  0.9796641626205503  0.9029603704486860  0.3683634529474653
  0.5206733554926719  0.7280907937247983  0.8670017935509722
  0.4792823179246063  0.2718927538637256  0.1330105830719781
  0.4793300392145876  0.7282389335035996  0.6330192887678491
  0.5206875223453074  0.2718670673094779  0.3669940602654295
  0.0206224623392183  0.2281150708423929  0.8669933640348996
  0.9793335039051775  0.7719041186322650  0.1330093074157652
  0.9792776387211261  0.2281306261687039  0.6329971223622689
  0.0206664994289791  0.7718502294409739  0.3669839150520254
  0.6099404374223565  0.4232655670289907  0.7980260828370574
  0.3900739313866035  0.5767197619964766  0.2019957428850482
  0.3900872287903702  0.4232075451424824  0.7019946516866090
  0.6099237823161895  0.5767618080203279  0.2980062968008031
  0.1099004122367794  0.9232323521531839  0.7980212918928402
  0.8900535745342026  0.0766838723300192  0.2019992107037058
  0.8901050929645484  0.9231985065277782  0.7019652938527119
  0.1099411005633473  0.0767564807561956  0.2980018762685057
  0.7043004938523213  0.5058463762673985  0.7644065245468143
  0.2956713209281341  0.4941450430366926  0.2356039958602112
  0.2956850323333635  0.5057536480547734  0.7356058906673152
  0.7043248718054277  0.4942060244517342  0.2643938621346250
  0.2042408217649353  0.0057229350598812  0.7643932335214689
  0.7956456495704445  0.9940876682161670  0.2356059035478304
  0.7957772183935775  0.0057121547438166  0.7355952029611127
  0.2043346857691010  0.9942014323510158  0.2643852253416310
  0.7231986491740362  0.5620309721624023  0.8156728312982020
  0.2768062866342525  0.4380277447219932  0.1843330950042667
  0.2768205973367109  0.5619042206103012  0.6843332733476833
  0.7231924420439004  0.4380481089365700  0.3156658919690715
  0.2231746778030693  0.0620048544251348  0.8156576810153636
  0.7767848655067054  0.9379720365259011  0.1843359427253255
  0.7768536219330804  0.0620176102625367  0.6843263178308095
  0.2232089348526735  0.9380220622629755  0.3156570526135372
  0.7440920705354692  0.3131184621353439  0.7984143266017765
  0.2559339275790244  0.6869276705078801  0.2016066895368736
  0.2559561242085427  0.3129989217116271  0.7016003387088008
  0.7440606912377347  0.6869499800139702  0.2983973062796310
  0.2440568098158853  0.8130803189673736  0.7983977380476364
  0.7559087730645212  0.1868817548682078  0.2016067712067180
  0.7559517190314028  0.8130743944645737  0.7015862755336062
  0.2440842819005379  0.1869380309987727  0.2983954144765308
  0.8247460034611753  0.3242156842609623  0.7956272886473900
  0.1752719782956213  0.6758303530854577  0.2043812905092129
  0.1752909232931849  0.3240735514080646  0.7043703138204269
  0.8247211210079880  0.6758736719983052  0.2956237358316365
  0.3247179324176149  0.8241875820850603  0.7956183579220486
  0.6752499510207832  0.1758050806074680  0.2043756886277818
  0.6752949574510037  0.8241775946944812  0.7043729110809687
  0.3247411796800460  0.1758398600085073  0.2956261981361265
  0.8712052261573461  0.2004727884719445  0.7993125675919508
  0.1288109077289972  0.7995563099813573  0.2006878661015503
  0.1288207703876955  0.2003626832006433  0.7006766278172732
  0.8711823363084243  0.7996117966027964  0.2993231259010696
  0.3711918998599012  0.7004674419896176  0.7993056013846623
  0.6288097857961686  0.2995610008754395  0.2006832181199232
  0.6288268837993094  0.7004641980750512  0.7006893260837219
  0.3711979197463808  0.2995802220948962  0.2993225554435968
  0.8376351487184674  0.0668846762013534  0.8060155699527916
  0.1623817937000017  0.9331249890658116  0.1939795394084484
  0.1623900517606641  0.0667928340384339  0.6939707411279600
  0.8376098740879809  0.9331790736108919  0.3060286501251395
  0.3376284381035967  0.5668708183900708  0.8060117069141888
  0.6623835646003362  0.4331269342132777  0.1939768507905359
  0.6623834212933201  0.5668680742914662  0.6939813836074450
  0.3376194471004842  0.4331622463302502  0.3060240771895830
  0.7571980659046227  0.0575225494680798  0.8087208133213839
  0.2428242027025158  0.9425277123999025  0.1912862856101337
  0.2428299635299202  0.0574029727275440  0.6912815613709383
  0.7571682863532523  0.9425536806898613  0.3087211765574454
  0.2571906873631207  0.5574791975461035  0.8087123625599020
  0.7428289156652635  0.4425080239930667  0.1912827660213539
  0.7428234204434256  0.5574654506308769  0.6912804340376255
  0.2571772978423744  0.4425300218348348  0.3087166166355507
  0.7097198605350362  0.1803212214165500  0.8047553599702674
  0.2903057391131330  0.8197291338819571  0.1952636361965585
  0.2903207419875532  0.1801989058700285  0.6952653876154630
  0.7096851997531203  0.8197433552414229  0.3047389820918847
  0.2096934239197627  0.6802770321813230  0.8047405213052506
  0.7902904566106843  0.3196724643254354  0.1952590591156905
  0.7903105447791925  0.6802722590175327  0.6952491045061262
  0.2097003429597225  0.3197202272448540  0.3047361661915868
  0.7801299892315696  0.8159200695215356  0.9696064413359624
  0.2198658895594524  0.1840966067064205  0.0303972981881725
  0.2198642259000687  0.8159141021358950  0.5303997619422404
  0.7801209805652598  0.1840659441458447  0.4696009728130839
  0.2801233082077366  0.3159194575202920  0.9696013494368633
  0.7198659990400024  0.6840873569162534  0.0303946516205370
  0.7198737151481120  0.3159196508912400  0.5303962840632491
  0.2801208330184448  0.6840923860125488  0.4696048904945399
  0.7892635257625362  0.8899974032414507  0.0047232324562682
  0.2107379953304967  0.1099934134524646  0.9952782225151084
  0.2107468114527505  0.8899920265004807  0.4952800385159503
  0.7892471894358024  0.1099893471041644  0.5047181440267859
  0.2892682342086341  0.3900174141608432  0.0047218606804194
  0.7107386992753970  0.6100076653832881  0.9952746557933114
  0.7107413764755022  0.3900111296286538  0.4952771118588298
  0.2892401950694674  0.6099751638951478  0.5047216702589604
  0.8744148637952174  0.8238748969293549  0.9880880837181840
  0.1255803100125589  0.1761170465858836  0.0119146930422558
  0.1255844619771532  0.8238789021685652  0.5119153557205061
  0.8744093541366121  0.1761162283652230  0.4880860588011010
  0.3744159862432934  0.3238904514736264  0.9880859463056267
  0.6255827367571113  0.6761153560612909  0.0119148903766180
  0.6255834893038787  0.3238789296469013  0.5119115051791897
  0.3744062552873418  0.6761216885089366  0.4880923812148140
  0.7287188714289224  0.1126037652812148  0.9897096366314616
  0.2712741888360545  0.8874167157480456  0.0102965195973793
  0.2712866412378726  0.1125716313977680  0.5102949098486381
  0.7287115565698780  0.8873726113179849  0.4897010164325799
  0.2287168003218132  0.6125939342887157  0.9897069049089529
  0.7712858347777437  0.3874103004310874  0.0102943480072551
  0.7712790114648065  0.6126024996273413  0.5102940110204433
  0.2287128801532015  0.3874057114666466  0.4897052221031928
  0.7140689031200180  0.0371744206834439  0.9548164078605577
  0.2859292938449402  0.9628482226187738  0.0451885546939294
  0.2859372916344580  0.0371417005646501  0.5451886279770409
  0.7140636855081736  0.9628086250082130  0.4548078540356559
  0.2140692182846587  0.5371681081295722  0.9548129775765907
  0.7859370153088225  0.4628401328494355  0.0451868603645974
  0.7859309623829288  0.5371677385675163  0.5451860367051571
  0.2140647385240770  0.4628418517294895  0.4548111513972777
  0.7629014579048388  0.2112399007008763  0.9595356804410790
  0.2371009104302337  0.7887757702545515  0.0404717641511860
  0.2371156567508622  0.2112176157472690  0.5404703012016842
  0.7629024245823129  0.7887522686494347  0.4595264322694957
  0.2628912306545751  0.7112441092759056  0.9595323814819812
  0.7371079396154475  0.2887646676932130  0.0404675120203382
  0.7370981700521311  0.7112360625400679  0.5404688996246558
  0.2628913356057165  0.2887729346464118  0.4595288238738379
  0.8631648291235831  0.1082530929570796  0.9317326430032269
  0.1368253239447695  0.8917672471920862  0.0682750437152832
  0.1368321049057241  0.1082422757621190  0.5682695586606913
  0.8631806124423336  0.8917526509502847  0.4317294026769267
  0.3631770955158215  0.6082542180578432  0.9317278903742892
  0.6368307707901574  0.3917393895776804  0.0682663883779032
  0.6368122548238874  0.6082699415848778  0.5682660802927698
  0.3631588942599268  0.3917504428718401  0.4317267795848419
  0.8200796681092539  0.9308080818676530  0.9310269096693330
  0.1798999611707550  0.0692069740850194  0.0689778846583456
  0.1799126879869029  0.9308076992742512  0.5689771288652303
  0.8200995430057006  0.0691849597786314  0.4310240373683150
  0.3201036686762272  0.4308124560222973  0.9310265908252767
  0.6799095789773418  0.5691818330400273  0.0689763787131472
  0.6798854923278850  0.4308346898624502  0.5689768686999030
  0.3200887358011558  0.5691910916100037  0.4310248102032560
  0.9189536456595655  0.9536412551589021  0.9445853743849387
  0.0810427024303061  0.0463645480903699  0.0554184741517092
  0.0810468604789350  0.9536380337698573  0.5554184682001956
  0.9189604655830623  0.0463555268689401  0.4445863097771269
  0.4189672554748235  0.4536570766848258  0.9445877450193284
  0.5810428935373116  0.5463493394303474  0.0554168937618343
  0.5810336201957214  0.4536584698324954  0.5554099463220032
  0.4189474965130142  0.5463559451466748  0.4445822663211815
  0.8314114551277915  0.0486542182387053  0.0293808001154939
  0.1685471897366579  0.9513699710449365  0.9706216787357063
  0.1685895395236053  0.0486448699424770  0.4706181068855045
  0.8314248691408599  0.9513447193029246  0.5293861399183306
  0.3314338983888621  0.5486467442464754  0.0293856938388424
  0.6685732482387835  0.4513599105323470  0.9706149718669310
  0.6685743118010976  0.5486684200889757  0.4706154473304723
  0.3314346386226199  0.4513557136523892  0.5293837638859157
  0.9149763091197100  0.1990892060050091  0.0603236237276288
  0.0849810966880361  0.8009025861297374  0.9396790136147998
  0.0850158816664104  0.1990648749500102  0.4396743278111964
  0.9150085943738921  0.8009127627077950  0.5603263208298447
  0.4150052708434176  0.6990905673821433  0.0603288818680114
  0.5849934616094000  0.3009164090582760  0.9396737848264586
  0.5849970871139384  0.6991183792539832  0.4396736194512653
  0.4150092401608011  0.3009084920224286  0.5603256976442871
  0.0181019384948192  0.3607229927946951  0.0396687126910018
  0.9818869462850452  0.6392477649228289  0.9603443190645206
  0.9818955073117394  0.3607255274851660  0.4603292639471416
  0.0181103140396659  0.6392499985660115  0.5396654964817266
  0.5181007046399017  0.8607656217098960  0.0396642239833239
  0.4818877499589498  0.1392627407360044  0.9603349199851550
  0.4818829743553166  0.8607524744324886  0.4603375109676741
  0.5180982937369324  0.1392376782362514  0.5396599942881325
  0.0341246602970219  0.3585501732277663  0.9875874909561023
  0.9659080612532273  0.6413452258302094  0.0124322390199506
  0.9659016358503565  0.3586070380253084  0.5124167449233168
  0.0340847799781894  0.6413619900645549  0.4875758003363448
  0.5340772728966194  0.8586664884671850  0.9875783705154835
  0.4659044504654182  0.1413645777956941  0.0124244556099590
  0.4658918861568198  0.8586165079990691  0.5124260433130127
  0.5340679853746835  0.1413361104017272  0.4875734380150822
  0.9527746718646195  0.2036777330353853  0.9563886865618783
  0.0472740720351756  0.7962463843614868  0.0436288836888983
  0.0472613916521816  0.2037319160878764  0.5436112560318904
  0.9527198824344731  0.7962722410452285  0.4563823228724865
  0.4527281339407612  0.7037645961963376  0.9563839226106327
  0.5472782380078423  0.2962693804020278  0.0436165454216320
  0.5472588414605098  0.7037176257635075  0.5436183197607874
  0.4527130504536568  0.2962536897022379  0.4563771299488158
  0.6344948559830037  0.9192976947808000  0.8828952839195287
  0.3654870490375754  0.0806794395241248  0.1171131967682416
  0.3655363240039888  0.9194288227376644  0.6171367611731959
  0.6344912735115110  0.0806628444591698  0.3828683732571063
  0.1344785730591557  0.4192800780360453  0.8828822316348430
  0.8655123052830478  0.5807105138411341  0.1171247384880696
  0.8655000383454295  0.4193538765354660  0.6171035534176917
  0.1344760476170548  0.5806384571971838  0.3828658581847048
  0.6340426952824399  0.0946740286733677  0.8662403054612564
  0.3659441443783572  0.9052791930192846  0.1337700597689499
  0.3659936189678392  0.0947991306026577  0.6337897677880457
  0.6340191300092411  0.9052971193006289  0.3662197304804006
  0.1340295011891730  0.5946441338758683  0.8662312074373794
  0.8659727380499805  0.4053363074816966  0.1337762454139751
  0.8659453395130544  0.5947172231792249  0.6337580434944984
  0.1340186186604651  0.4052629054831386  0.3662181267820781
  0.6163669185253753  0.9344690070349571  0.8449627205512477
  0.3836317762407554  0.0655028380537586  0.1550423087840725
  0.3837041749720659  0.9345865508318445  0.6550622982610229
  0.6163204715398009  0.0654946982786071  0.3449412028103433
  0.1163330062512115  0.4344612911573480  0.8449548544835409
  0.8836661683995647  0.5655341324788397  0.1550528297026226
  0.8836094030613195  0.4344884878227914  0.6550321837571870
  0.1163161147753862  0.5654611615859970  0.3449378103351455
  0.5361495675394430  0.0029337804130101  0.9145197845063161
  0.4638492418185040  0.9970788957921081  0.0854885237288576
  0.4638408045691850  0.0029147423819976  0.5854913089659703
  0.5361718805525002  0.9970985061600709  0.4145149594428171
  0.0361477242846783  0.5029219704908221  0.9145170722610511
  0.9638508304659870  0.4970854741606016  0.0854905763433450
  0.9638389018068938  0.5029459683585490  0.5854848602492773
  0.0361691272277610  0.4971070975581489  0.4145104529510985
  0.4498768523603039  0.0958419734006043  0.9006866674428634
  0.5501207117319619  0.9041830798620534  0.0993175862544660
  0.5501164388715809  0.0958507870547117  0.5993058459973974
  0.4498923023883759  0.9041606430175310  0.4006901410268534
  0.9498838250619194  0.5958527897344574  0.9006913363135858
  0.0501219524593592  0.4041792631381443  0.0993134236083312
  0.0501161565358865  0.5958488904944362  0.5993154458994218
  0.9498941372530271  0.4041511428557463  0.4006910115952826
  0.5445982242242133  0.1788584991338411  0.8978196589771884
  0.4553889712046842  0.8211483681566220  0.1021775065908112
  0.4554109719817301  0.1788896381120140  0.6021769483094922
  0.5445994618484553  0.8211594220577331  0.3978187025222935
  0.0446028594914928  0.6788574287401254  0.8978220213000130
  0.9553976025265699  0.3211566985102559  0.1021801808864981
  0.9554028683372844  0.6788759571842500  0.6021853432860566
  0.0445972318070896  0.3211542587586569  0.3978207075749913
  0.5217092551216769  0.1995929571541284  0.8463944432184135
  0.4782931191321242  0.8003918953133681  0.1536235801906776
  0.4783570822636243  0.1997808276928744  0.6536131326005052
  0.5216697772106905  0.8003429618567303  0.3463969968227859
  0.0216911255217488  0.6996200473942928  0.8463870464760427
  0.9783049351703088  0.3003757003044694  0.1536141752637351
  0.9782891949126017  0.6996102530022538  0.6536150524887110
  0.0216673600269911  0.3002759951807893  0.3463988704998922
  0.4271985832115155  0.1195414356443573  0.8493388478786612
  0.5727894362006429  0.8804967676759796  0.1506757283286075
  0.5728564779378802  0.1196617844505095  0.6506612831885866
  0.4271670355822159  0.8804244030272355  0.3493457255076428
  0.9271838200105711  0.6195448314951546  0.8493340769706693
  0.0728108862209867  0.3804512875461085  0.1506687689581864
  0.0727878632788905  0.6195320341585336  0.6506732878939268
  0.9271641793688746  0.3803710328031834  0.3493447400894453
  0.4957040374089527  0.0400564439675730  0.8258507118696348
  0.5042770137587890  0.9599852836827376  0.1741584198950297
  0.5043702042108129  0.0402382222704011  0.6741560116943314
  0.4956556564365313  0.9598483243784290  0.3258457003876750
  0.9956918617041223  0.5400619785124278  0.8258477470575643
  0.0043087729127233  0.4599264847932524  0.1741590504117677
  0.0042798039882577  0.5400485662538530  0.6741566468575789
  0.9956477301185254  0.4597801001860302  0.3258436654966335
  0.3672709651845933  0.9614285342914562  0.8748408949452288
  0.6327043980367392  0.0385672332192354  0.1252015911193747