!ISTART = 1
!ICHARG = 1
ENCUT = 500
ENCUTGW = 420
ENCUTGWSOFT = 350
ISMEAR = 0
SIGMA = 0.05
EDIFF = 1E-06
LREAL = Auto

NCORE = 4           # 병렬화 설정
ALGO = TDHF         # BSE 계산 활성화
ANTIRES = 0
OMEGAMAX = 20.0     # 스펙트럼 최대값

NBANDSO = 925
NBANDSV = 932

LMODELHF = .TRUE.
HFSCREEN = 1.26
AEXX = 0.088
SCISSOR = 0.0

ISPIN = 2
MAGMOM = 12*5.0 47*0.0 24*0.0 216*0.0 336*0.0

