System = MAPbI3-BSO
PREC = Accurate
ISYM = 0

IALGO = 48
NCORE = 8
ISMEAR = 0
SIGMA = 0.05
ENCUT = 500
EDIFF = 1E-06

LREAL = Auto
LWAVE = .TRUE.
LCHARG = .TRUE.
LORBIT = 11

NELM = 5000
NEDOS = 1000
IBRION = -1
NSW = 0

ISPIN = 2
MAGMOM = 12*5.0 47*0.0 24*0.0 216*0.0 336*0.0
